** Output from COS2ABQ translator version 2014  
*HEADING
                                                                         
** PARTS
**
*PART,NAME=PART1
*NODE, NSET=NSET1
1,0.000000000,0.1000000015,-.1177587307E-16
2,0.000000000,0.000000000,-.1177587307E-16
3,0.000000000,0.000000000,0.1999999955E-01
4,0.000000000,0.1000000015,0.1999999955E-01
5,0.1000000015,0.000000000,-.1177587307E-16
6,0.1000000015,0.000000000,0.1999999955E-01
7,0.7000000030E-01,0.1499999966E-01,0.1999999955E-01
8,0.6855767965E-01,0.1851324923E-01,0.1999999955E-01
9,0.1999999955E-01,0.1499999966E-01,0.1999999955E-01
10,0.1855767891E-01,0.1851324923E-01,0.1999999955E-01
11,0.1999999955E-01,0.6499999762E-01,0.1999999955E-01
12,0.1855767891E-01,0.6851325184E-01,0.1999999955E-01
13,0.7000000030E-01,0.1499999966E-01,-.1177587307E-16
14,0.6855767965E-01,0.1851324923E-01,-.1177587307E-16
15,0.1999999955E-01,0.1499999966E-01,-.1177587307E-16
16,0.1855767891E-01,0.1851324923E-01,-.1177587307E-16
17,0.1999999955E-01,0.6499999762E-01,-.1177587307E-16
18,0.1855767891E-01,0.6851325184E-01,-.1177587307E-16
19,0.000000000,0.9375000000E-01,-.1177587307E-16
20,0.000000000,0.8749999851E-01,-.1177587307E-16
21,0.000000000,0.8124999702E-01,-.1177587307E-16
22,0.000000000,0.7500000298E-01,-.1177587307E-16
23,0.000000000,0.6875000149E-01,-.1177587307E-16
24,0.000000000,0.6250000000E-01,-.1177587307E-16
25,0.000000000,0.5624999851E-01,-.1177587307E-16
26,0.000000000,0.5000000075E-01,-.1177587307E-16
27,0.000000000,0.4374999925E-01,-.1177587307E-16
28,0.000000000,0.3750000149E-01,-.1177587307E-16
29,0.000000000,0.3125000000E-01,-.1177587307E-16
30,0.000000000,0.2500000037E-01,-.1177587307E-16
31,0.000000000,0.1875000075E-01,-.1177587307E-16
32,0.000000000,0.1250000019E-01,-.1177587307E-16
33,0.000000000,0.6250000093E-02,-.1177587307E-16
34,0.000000000,0.000000000,0.1333333366E-01
35,0.000000000,0.000000000,0.6666666828E-02
36,0.000000000,0.9375000000E-01,0.1999999955E-01
37,0.000000000,0.8749999851E-01,0.1999999955E-01
38,0.000000000,0.8124999702E-01,0.1999999955E-01
39,0.000000000,0.7500000298E-01,0.1999999955E-01
40,0.000000000,0.6875000149E-01,0.1999999955E-01
41,0.000000000,0.6250000000E-01,0.1999999955E-01
42,0.000000000,0.5624999851E-01,0.1999999955E-01
43,0.000000000,0.5000000075E-01,0.1999999955E-01
44,0.000000000,0.4374999925E-01,0.1999999955E-01
45,0.000000000,0.3750000149E-01,0.1999999955E-01
46,0.000000000,0.3125000000E-01,0.1999999955E-01
47,0.000000000,0.2500000037E-01,0.1999999955E-01
48,0.000000000,0.1875000075E-01,0.1999999955E-01
49,0.000000000,0.1250000019E-01,0.1999999955E-01
50,0.000000000,0.6250000093E-02,0.1999999955E-01
51,0.000000000,0.1000000015,0.1333333366E-01
52,0.000000000,0.1000000015,0.6666666828E-02
53,0.000000000,0.9464321285E-01,0.9999999776E-02
54,0.000000000,0.9153787047E-01,0.1475968491E-01
55,0.000000000,0.7814630866E-01,0.5028306041E-02
56,0.000000000,0.7812500000E-01,0.1458734088E-01
57,0.000000000,0.6562507153E-01,0.5024337675E-02
58,0.000000000,0.6562499702E-01,0.1458734088E-01
59,0.000000000,0.5312498659E-01,0.5024336278E-02
60,0.000000000,0.5312500149E-01,0.1458734088E-01
61,0.000000000,0.5405934528E-02,0.9991657920E-02
62,0.000000000,0.3437497467E-01,0.5024347920E-02
63,0.000000000,0.1550123841E-01,0.4997547716E-02
64,0.000000000,0.8435450494E-02,0.5224601831E-02
65,0.000000000,0.4062483832E-01,0.5024433136E-02
66,0.000000000,0.8457322419E-01,0.5200845189E-02
67,0.000000000,0.8440969139E-01,0.1479344163E-01
68,0.000000000,0.7187726349E-01,0.5024605896E-02
69,0.000000000,0.7187499851E-01,0.1458734088E-01
70,0.000000000,0.5937499180E-01,0.5024527200E-02
71,0.000000000,0.2812471613E-01,0.5024536513E-02
72,0.000000000,0.5937499925E-01,0.1458734088E-01
73,0.000000000,0.4687495902E-01,0.5024526268E-02
74,0.000000000,0.4687500000E-01,0.1458734088E-01
75,0.000000000,0.2186544798E-01,0.5025471561E-02
76,0.000000000,0.4062499851E-01,0.1458734088E-01
77,0.000000000,0.3437500075E-01,0.1458734088E-01
78,0.000000000,0.2812499925E-01,0.1458734088E-01
79,0.000000000,0.2187499963E-01,0.1458734088E-01
80,0.000000000,0.1557510346E-01,0.1461867429E-01
81,0.000000000,0.8586680517E-02,0.1460891590E-01
82,0.000000000,0.9145566076E-01,0.5389762111E-02
83,0.000000000,0.1221310906E-01,0.9647291154E-02
84,0.000000000,0.1871770620E-01,0.9535755031E-02
85,0.000000000,0.2499573864E-01,0.9538629092E-02
86,0.000000000,0.3124938346E-01,0.9539025836E-02
87,0.000000000,0.3749975935E-01,0.9539033286E-02
88,0.000000000,0.4374979809E-01,0.9539022110E-02
89,0.000000000,0.8779232949E-01,0.1030736882E-01
90,0.000000000,0.4999983311E-01,0.9539023973E-02
91,0.000000000,0.5624980479E-01,0.9539025836E-02
92,0.000000000,0.6249984354E-01,0.9539023042E-02
93,0.000000000,0.6875009090E-01,0.9538912214E-02
94,0.000000000,0.7500483841E-01,0.9538160637E-02
95,0.000000000,0.8131238073E-01,0.9614959359E-02
96,0.6250000093E-02,0.000000000,-.1177587307E-16
97,0.1250000019E-01,0.000000000,-.1177587307E-16
98,0.1875000075E-01,0.000000000,-.1177587307E-16
99,0.2500000037E-01,0.000000000,-.1177587307E-16
100,0.3125000000E-01,0.000000000,-.1177587307E-16
101,0.3750000149E-01,0.000000000,-.1177587307E-16
102,0.4374999925E-01,0.000000000,-.1177587307E-16
103,0.5000000075E-01,0.000000000,-.1177587307E-16
104,0.5624999851E-01,0.000000000,-.1177587307E-16
105,0.6250000000E-01,0.000000000,-.1177587307E-16
106,0.6875000149E-01,0.000000000,-.1177587307E-16
107,0.7500000298E-01,0.000000000,-.1177587307E-16
108,0.8124999702E-01,0.000000000,-.1177587307E-16
109,0.8749999851E-01,0.000000000,-.1177587307E-16
110,0.9375000000E-01,0.000000000,-.1177587307E-16
111,0.1000000015,0.000000000,0.1333333366E-01
112,0.1000000015,0.000000000,0.6666666828E-02
113,0.6250000093E-02,0.000000000,0.1999999955E-01
114,0.1250000019E-01,0.000000000,0.1999999955E-01
115,0.1875000075E-01,0.000000000,0.1999999955E-01
116,0.2500000037E-01,0.000000000,0.1999999955E-01
117,0.3125000000E-01,0.000000000,0.1999999955E-01
118,0.3750000149E-01,0.000000000,0.1999999955E-01
119,0.4374999925E-01,0.000000000,0.1999999955E-01
120,0.5000000075E-01,0.000000000,0.1999999955E-01
121,0.5624999851E-01,0.000000000,0.1999999955E-01
122,0.6250000000E-01,0.000000000,0.1999999955E-01
123,0.6875000149E-01,0.000000000,0.1999999955E-01
124,0.7500000298E-01,0.000000000,0.1999999955E-01
125,0.8124999702E-01,0.000000000,0.1999999955E-01
126,0.8749999851E-01,0.000000000,0.1999999955E-01
127,0.9375000000E-01,0.000000000,0.1999999955E-01
128,0.1550050266E-01,0.000000000,0.4999350756E-02
129,0.1557491161E-01,0.000000000,0.1461805962E-01
130,0.2812466025E-01,0.000000000,0.5024341401E-02
131,0.4062498733E-01,0.000000000,0.5024336744E-02
132,0.9459406883E-01,0.000000000,0.9991657920E-02
133,0.3437498212E-01,0.000000000,0.5024526734E-02
134,0.8449876308E-01,0.000000000,0.4997547716E-02
135,0.9156455100E-01,0.000000000,0.5224601831E-02
136,0.4687483981E-01,0.000000000,0.5024432670E-02
137,0.8430507034E-02,0.000000000,0.5231071264E-02
138,0.5312481150E-01,0.000000000,0.5024431739E-02
139,0.8583506569E-02,0.000000000,0.1460499223E-01
140,0.2186571248E-01,0.000000000,0.5024919286E-02
141,0.5937480927E-01,0.000000000,0.5024432670E-02
142,0.2187499963E-01,0.000000000,0.1458734088E-01
143,0.6562481821E-01,0.000000000,0.5024441984E-02
144,0.2812499925E-01,0.000000000,0.1458734088E-01
145,0.3437500075E-01,0.000000000,0.1458734088E-01
146,0.4062499851E-01,0.000000000,0.1458734088E-01
147,0.7187525183E-01,0.000000000,0.5024535116E-02
148,0.4687500000E-01,0.000000000,0.1458734088E-01
149,0.5312500149E-01,0.000000000,0.1458734088E-01
150,0.7813455164E-01,0.000000000,0.5025471561E-02
151,0.5937499925E-01,0.000000000,0.1458734088E-01
152,0.6562499702E-01,0.000000000,0.1458734088E-01
153,0.7187499851E-01,0.000000000,0.1458734088E-01
154,0.7812500000E-01,0.000000000,0.1458734088E-01
155,0.8442489803E-01,0.000000000,0.1461867429E-01
156,0.9141331911E-01,0.000000000,0.1460891590E-01
157,0.5356789567E-02,0.000000000,0.9999999776E-02
158,0.8778689057E-01,0.000000000,0.9647291154E-02
159,0.8128229529E-01,0.000000000,0.9535755031E-02
160,0.7500425726E-01,0.000000000,0.9538626298E-02
161,0.6875061244E-01,0.000000000,0.9539018385E-02
162,0.6250020862E-01,0.000000000,0.9539026767E-02
163,0.5625016615E-01,0.000000000,0.9539026767E-02
164,0.5000016093E-01,0.000000000,0.9539028630E-02
165,0.4375016317E-01,0.000000000,0.9539033286E-02
166,0.3750019148E-01,0.000000000,0.9539026767E-02
167,0.3125013039E-01,0.000000000,0.9539011866E-02
168,0.2499891259E-01,0.000000000,0.9538559243E-02
169,0.1872738451E-01,0.000000000,0.9535398334E-02
170,0.1220278442E-01,0.000000000,0.9648454376E-02
171,0.9565217048E-01,0.4347825889E-02,-.1177587307E-16
172,0.9130434692E-01,0.8695651777E-02,-.1177587307E-16
173,0.8695652336E-01,0.1304347813E-01,-.1177587307E-16
174,0.8260869235E-01,0.1739130355E-01,-.1177587307E-16
175,0.7826086879E-01,0.2173913084E-01,-.1177587307E-16
176,0.7391304523E-01,0.2608695626E-01,-.1177587307E-16
177,0.6956521422E-01,0.3043478169E-01,-.1177587307E-16
178,0.6521739066E-01,0.3478260711E-01,-.1177587307E-16
179,0.6086956337E-01,0.3913043439E-01,-.1177587307E-16
180,0.5652173981E-01,0.4347826168E-01,-.1177587307E-16
181,0.5217391253E-01,0.4782608524E-01,-.1177587307E-16
182,0.4782608524E-01,0.5217391253E-01,-.1177587307E-16
183,0.4347826168E-01,0.5652173981E-01,-.1177587307E-16
184,0.3913043439E-01,0.6086956337E-01,-.1177587307E-16
185,0.3478260711E-01,0.6521739066E-01,-.1177587307E-16
186,0.3043478169E-01,0.6956521422E-01,-.1177587307E-16
187,0.2608695626E-01,0.7391304523E-01,-.1177587307E-16
188,0.2173913084E-01,0.7826086879E-01,-.1177587307E-16
189,0.1739130355E-01,0.8260869235E-01,-.1177587307E-16
190,0.1304347813E-01,0.8695652336E-01,-.1177587307E-16
191,0.8695651777E-02,0.9130434692E-01,-.1177587307E-16
192,0.4347825889E-02,0.9565217048E-01,-.1177587307E-16
193,0.9565217048E-01,0.4347825889E-02,0.1999999955E-01
194,0.9130434692E-01,0.8695651777E-02,0.1999999955E-01
195,0.8695652336E-01,0.1304347813E-01,0.1999999955E-01
196,0.8260869235E-01,0.1739130355E-01,0.1999999955E-01
197,0.7826086879E-01,0.2173913084E-01,0.1999999955E-01
198,0.7391304523E-01,0.2608695626E-01,0.1999999955E-01
199,0.6956521422E-01,0.3043478169E-01,0.1999999955E-01
200,0.6521739066E-01,0.3478260711E-01,0.1999999955E-01
201,0.6086956337E-01,0.3913043439E-01,0.1999999955E-01
202,0.5652173981E-01,0.4347826168E-01,0.1999999955E-01
203,0.5217391253E-01,0.4782608524E-01,0.1999999955E-01
204,0.4782608524E-01,0.5217391253E-01,0.1999999955E-01
205,0.4347826168E-01,0.5652173981E-01,0.1999999955E-01
206,0.3913043439E-01,0.6086956337E-01,0.1999999955E-01
207,0.3478260711E-01,0.6521739066E-01,0.1999999955E-01
208,0.3043478169E-01,0.6956521422E-01,0.1999999955E-01
209,0.2608695626E-01,0.7391304523E-01,0.1999999955E-01
210,0.2173913084E-01,0.7826086879E-01,0.1999999955E-01
211,0.1739130355E-01,0.8260869235E-01,0.1999999955E-01
212,0.1304347813E-01,0.8695652336E-01,0.1999999955E-01
213,0.8695651777E-02,0.9130434692E-01,0.1999999955E-01
214,0.4347825889E-02,0.9565217048E-01,0.1999999955E-01
215,0.9413950145E-01,0.5860496778E-02,0.1478180196E-01
216,0.8924221992E-01,0.1075778063E-01,0.1500510797E-01
217,0.8479332924E-01,0.1520667318E-01,0.1497416571E-01
218,0.8043604344E-01,0.1956395805E-01,0.1497431379E-01
219,0.7172624022E-01,0.2827375755E-01,0.1497255545E-01
220,0.6748048961E-01,0.3251951188E-01,0.5249365699E-02
221,0.6730246544E-01,0.3269753605E-01,0.1475053839E-01
222,0.5868452787E-01,0.4131547362E-01,0.5027620122E-02
223,0.5869565159E-01,0.4130434617E-01,0.1455941238E-01
224,0.5442928895E-01,0.4557071254E-01,0.1474945806E-01
225,0.3695647791E-01,0.6304351985E-01,0.1497043855E-01
226,0.3787822323E-02,0.9621217847E-01,0.9999999776E-02
227,0.3695652261E-01,0.6304347515E-01,0.5440588109E-02
228,0.1078339480E-01,0.8921660483E-01,0.4994899966E-02
229,0.5861996673E-02,0.9413800389E-01,0.5217505153E-02
230,0.4565098509E-01,0.5434901640E-01,0.5030853208E-02
231,0.4121597484E-01,0.5878402665E-01,0.5249680486E-02
232,0.9401951730E-01,0.5980483256E-02,0.5392461549E-02
233,0.8916778117E-01,0.1083222218E-01,0.5405986216E-02
234,0.8478260785E-01,0.1521739084E-01,0.5440588109E-02
235,0.8043478429E-01,0.1956521720E-01,0.5440588109E-02
236,0.7608695328E-01,0.2391304262E-01,0.5440588109E-02
237,0.7608564198E-01,0.2391435578E-01,0.1497380529E-01
238,0.7173912972E-01,0.2826086991E-01,0.5440588109E-02
239,0.6305886805E-01,0.3694113344E-01,0.5028632004E-02
240,0.6304347515E-01,0.3695652261E-01,0.1455941238E-01
241,0.5426562577E-01,0.4573437572E-01,0.5250130314E-02
242,0.2827403322E-01,0.7172596455E-01,0.5027997773E-02
243,0.5007712170E-01,0.4992287979E-01,0.5250898190E-02
244,0.2391464077E-01,0.7608535886E-01,0.5025775637E-02
245,0.4992334172E-01,0.5007665977E-01,0.1474916376E-01
246,0.4565217346E-01,0.5434782431E-01,0.1455941238E-01
247,0.1956524327E-01,0.8043475449E-01,0.5025724880E-02
248,0.4139248282E-01,0.5860751495E-01,0.1475044806E-01
249,0.3269770741E-01,0.6730229408E-01,0.5249597598E-02
250,0.1521104295E-01,0.8478895575E-01,0.5026472732E-02
251,0.3252054378E-01,0.6747945398E-01,0.1475051325E-01
252,0.2826086991E-01,0.7173912972E-01,0.1455941238E-01
253,0.2391304262E-01,0.7608695328E-01,0.1455941238E-01
254,0.1086956542E-01,0.8913043141E-01,0.1455941238E-01
255,0.1956521720E-01,0.8043478429E-01,0.1455941238E-01
256,0.1521739084E-01,0.8478260785E-01,0.1455941238E-01
257,0.5980771966E-02,0.9401922673E-01,0.1460696291E-01
258,0.9621217847E-01,0.3787822323E-02,0.9999999776E-02
259,0.1739051938E-01,0.8260948211E-01,0.9508496150E-02
260,0.1302889455E-01,0.8697110415E-01,0.9504828602E-02
261,0.8502958342E-02,0.9149704129E-01,0.9621294215E-02
262,0.2173914015E-01,0.7826086134E-01,0.9508417919E-02
263,0.2608960867E-01,0.7391039282E-01,0.9507634677E-02
264,0.3045004793E-01,0.6954995543E-01,0.9586475790E-02
265,0.4346638918E-01,0.5653360859E-01,0.9585690685E-02
266,0.4783961549E-01,0.5216038600E-01,0.9588937275E-02
267,0.5217725039E-01,0.4782274738E-01,0.1038514171E-01
268,0.7391078025E-01,0.2608922124E-01,0.1049196627E-01
269,0.7826055586E-01,0.2173944376E-01,0.1049163472E-01
270,0.8260960877E-01,0.1739039086E-01,0.1049231086E-01
271,0.8697225899E-01,0.1302774157E-01,0.1049822848E-01
272,0.9149844199E-01,0.8501555771E-02,0.1037406456E-01
273,0.3477420658E-01,0.6522579491E-01,0.1041573845E-01
274,0.3913893551E-01,0.6086106598E-01,0.1041590329E-01
275,0.5650877953E-01,0.4349122196E-01,0.9587756358E-02
276,0.6086935848E-01,0.3913064301E-01,0.9506147355E-02
277,0.6523212045E-01,0.3476788104E-01,0.9586921893E-02
278,0.6955407560E-01,0.3044592030E-01,0.1041473728E-01
279,0.6956957281E-01,0.1702952757E-01,0.1999999955E-01
280,0.1962538809E-01,0.1689889282E-01,0.1999999955E-01
281,0.1956957392E-01,0.6702952832E-01,0.1999999955E-01
282,0.1634740643E-01,0.6981502473E-01,0.1999999955E-01
283,0.1298892219E-01,0.6957772374E-01,0.1999999955E-01
284,0.1047261339E-01,0.6712197512E-01,0.1999999955E-01
285,0.1019510254E-01,0.6361690164E-01,0.1999999955E-01
286,0.1229361910E-01,0.6079577655E-01,0.1999999955E-01
287,0.1573044434E-01,0.6005364284E-01,0.1999999955E-01
288,0.1880606450E-01,0.6175749004E-01,0.1999999955E-01
289,0.1502692886E-01,0.1999992691E-01,0.1999999955E-01
290,0.1148037054E-01,0.1855136640E-01,0.1999999955E-01
291,0.1000003237E-01,0.1501795463E-01,0.1999999955E-01
292,0.1145495567E-01,0.1147400215E-01,0.1999999955E-01
293,0.1499101892E-01,0.1000000816E-01,0.1999999955E-01
294,0.1853235438E-01,0.1146129053E-01,0.1999999955E-01
295,0.6634740531E-01,0.1981502771E-01,0.1999999955E-01
296,0.6298892200E-01,0.1957772486E-01,0.1999999955E-01
297,0.6047261506E-01,0.1712197252E-01,0.1999999955E-01
298,0.6019510329E-01,0.1361690275E-01,0.1999999955E-01
299,0.6229361892E-01,0.1079577580E-01,0.1999999955E-01
300,0.6573044509E-01,0.1005364303E-01,0.1999999955E-01
301,0.6880606711E-01,0.1175748929E-01,0.1999999955E-01
302,0.1155941375E-01,0.7674485445E-01,0.1999999955E-01
303,0.5376620218E-02,0.2234251238E-01,0.1999999955E-01
304,0.5319074914E-01,0.5466259085E-02,0.1999999955E-01
305,0.7743287086E-01,0.5844354630E-02,0.1999999955E-01
306,0.5662184209E-02,0.7788839936E-01,0.1999999955E-01
307,0.4864907358E-02,0.7175403088E-01,0.1999999955E-01
308,0.5778126884E-02,0.2788499370E-01,0.1999999955E-01
309,0.1754993945E-01,0.2827380039E-01,0.1999999955E-01
310,0.1138216536E-01,0.2992659435E-01,0.1999999955E-01
311,0.2772276103E-01,0.5814940203E-02,0.1999999955E-01
312,0.5140157789E-01,0.1119234040E-01,0.1999999955E-01
313,0.8054707199E-01,0.1131154783E-01,0.1999999955E-01
314,0.2955826558E-01,0.1203249115E-01,0.1999999955E-01
315,0.2874039300E-01,0.2012826689E-01,0.1999999955E-01
316,0.4798661917E-01,0.1611246727E-01,0.1999999955E-01
317,0.2876161970E-01,0.6354422867E-01,0.1999999955E-01
318,0.5913767032E-02,0.5346606672E-01,0.1999999955E-01
319,0.1093247905E-01,0.5011419579E-01,0.1999999955E-01
320,0.6355380267E-01,0.2890166827E-01,0.1999999955E-01
321,0.2671608701E-01,0.5746302754E-01,0.1999999955E-01
322,0.2440379746E-01,0.5156302825E-01,0.1999999955E-01
323,0.5812190473E-01,0.2581368759E-01,0.1999999955E-01
324,0.5258258805E-01,0.2073529549E-01,0.1999999955E-01
325,0.1757230237E-01,0.5142171308E-01,0.1999999955E-01
326,0.2358580567E-01,0.2559881471E-01,0.1999999955E-01
327,0.7574038953E-01,0.1606578380E-01,0.1999999955E-01
328,0.6439621747E-01,0.2397903614E-01,0.1999999955E-01
329,0.6926042587E-01,0.2345683984E-01,0.1999999955E-01
330,0.1797413453E-01,0.2298901416E-01,0.1999999955E-01
331,0.5955541972E-02,0.6579109281E-01,0.1999999955E-01
332,0.6839949638E-02,0.5975606292E-01,0.1999999955E-01
333,0.1233336516E-01,0.5615441874E-01,0.1999999955E-01
334,0.1159098186E-01,0.2386985533E-01,0.1999999955E-01
335,0.5748614203E-02,0.1620431244E-01,0.1999999955E-01
336,0.5832763389E-02,0.9377352893E-02,0.1999999955E-01
337,0.1089902688E-01,0.6292635109E-02,0.1999999955E-01
338,0.2337446995E-01,0.1118010283E-01,0.1999999955E-01
339,0.2449849993E-01,0.1613896526E-01,0.1999999955E-01
340,0.5726150796E-01,0.1015356835E-01,0.1999999955E-01
341,0.6429526955E-01,0.5836090073E-02,0.1999999955E-01
342,0.7019631565E-01,0.6509368308E-02,0.1999999955E-01
343,0.7275771350E-01,0.2022495866E-01,0.1999999955E-01
344,0.2445605956E-01,0.6660125405E-01,0.1999999955E-01
345,0.2263727039E-01,0.2033960819E-01,0.1999999955E-01
346,0.2296879701E-01,0.7017600536E-01,0.1999999955E-01
347,0.1993540674E-01,0.7264126092E-01,0.1999999955E-01
348,0.1437378954E-01,0.7315469533E-01,0.1999999955E-01
349,0.1728570275E-01,0.7672951370E-01,0.1999999955E-01
350,0.2302164771E-01,0.6173433363E-01,0.1999999955E-01
351,0.2150664665E-01,0.5897263531E-02,0.1999999955E-01
352,0.1610700972E-01,0.5672885571E-02,0.1999999955E-01
353,0.5932259932E-01,0.5440706387E-02,0.1999999955E-01
354,0.9116483852E-02,0.7148825377E-01,0.1999999955E-01
355,0.7364358008E-01,0.1129152998E-01,0.1999999955E-01
356,0.1936006732E-01,0.5720135570E-01,0.1999999955E-01
357,0.5564875901E-01,0.1573793404E-01,0.1999999955E-01
358,0.5883407220E-01,0.2091860212E-01,0.1999999955E-01
359,0.4615292326E-01,0.4615292326E-01,0.1999999955E-01
360,0.5980338436E-02,0.8474981785E-01,0.1999999955E-01
361,0.5646166857E-02,0.3415045515E-01,0.1999999955E-01
362,0.3402627632E-01,0.5776332691E-02,0.1999999955E-01
363,0.8459671587E-01,0.6072916090E-02,0.1999999955E-01
364,0.5917713791E-01,0.3287886083E-01,0.1999999955E-01
365,0.5050075054E-01,0.4180509597E-01,0.1999999955E-01
366,0.4180509597E-01,0.5050075054E-01,0.1999999955E-01
367,0.3310944512E-01,0.5919640139E-01,0.1999999955E-01
368,0.1111572050E-01,0.8157937974E-01,0.1999999955E-01
369,0.5412658677E-02,0.4687500000E-01,0.1999999955E-01
370,0.5412658677E-02,0.4062499851E-01,0.1999999955E-01
371,0.3745727241E-01,0.5484857410E-01,0.1999999955E-01
372,0.4062499851E-01,0.5412658677E-02,0.1999999955E-01
373,0.5484857410E-01,0.3745727241E-01,0.1999999955E-01
374,0.4705384746E-01,0.5611359142E-02,0.1999999955E-01
375,0.3127276525E-01,0.5312691256E-01,0.1999999955E-01
376,0.5335988849E-01,0.3139142320E-01,0.1999999955E-01
377,0.1086804084E-01,0.3714624420E-01,0.1999999955E-01
378,0.4405372962E-01,0.1092714909E-01,0.1999999955E-01
379,0.2933423966E-01,0.2632842958E-01,0.1999999955E-01
380,0.1064903755E-01,0.4364999756E-01,0.1999999955E-01
381,0.2915773168E-01,0.4703924805E-01,0.1999999955E-01
382,0.3578410670E-01,0.4882758483E-01,0.1999999955E-01
383,0.3718185425E-01,0.1090894919E-01,0.1999999955E-01
384,0.4882758483E-01,0.3578410670E-01,0.1999999955E-01
385,0.4689116403E-01,0.2926041745E-01,0.1999999955E-01
386,0.1568716764E-01,0.4603807628E-01,0.1999999955E-01
387,0.4013193399E-01,0.4447976127E-01,0.1999999955E-01
388,0.4447976127E-01,0.4013193399E-01,0.1999999955E-01
389,0.5142344534E-01,0.2593956515E-01,0.1999999955E-01
390,0.4052148387E-01,0.1645283215E-01,0.1999999955E-01
391,0.3374776244E-01,0.1591828652E-01,0.1999999955E-01
392,0.4445972294E-01,0.2165565081E-01,0.1999999955E-01
393,0.1626706868E-01,0.4041336849E-01,0.1999999955E-01
394,0.3411094472E-01,0.4280659556E-01,0.1999999955E-01
395,0.1638961211E-01,0.3401735798E-01,0.1999999955E-01
396,0.4280659556E-01,0.3411094472E-01,0.1999999955E-01
397,0.3845876828E-01,0.3845876828E-01,0.1999999955E-01
398,0.2190056071E-01,0.4480585828E-01,0.1999999955E-01
399,0.3596075624E-01,0.2187268250E-01,0.1999999955E-01
400,0.4094225541E-01,0.2748544514E-01,0.1999999955E-01
401,0.3067678958E-01,0.3116824105E-01,0.1999999955E-01
402,0.3512108698E-01,0.2694850229E-01,0.1999999955E-01
403,0.3678560629E-01,0.3243777901E-01,0.1999999955E-01
404,0.2167756855E-01,0.3770677373E-01,0.1999999955E-01
405,0.2762795612E-01,0.4109222442E-01,0.1999999955E-01
406,0.2342934720E-01,0.3152837977E-01,0.1999999955E-01
407,0.3257128224E-01,0.3690083697E-01,0.1999999955E-01
408,0.2720099501E-01,0.3530289978E-01,0.1999999955E-01
409,0.6962538511E-01,0.1689889282E-01,-.1177587307E-16
410,0.1956957392E-01,0.1702952757E-01,-.1177587307E-16
411,0.1962538809E-01,0.6689888984E-01,-.1177587307E-16
412,0.1502692886E-01,0.6999992579E-01,-.1177587307E-16
413,0.1148037054E-01,0.6855136901E-01,-.1177587307E-16
414,0.1000003237E-01,0.6501795352E-01,-.1177587307E-16
415,0.1145495567E-01,0.6147400290E-01,-.1177587307E-16
416,0.1499101892E-01,0.6000000983E-01,-.1177587307E-16
417,0.1853235438E-01,0.6146128848E-01,-.1177587307E-16
418,0.1634740643E-01,0.1981502771E-01,-.1177587307E-16
419,0.1298892219E-01,0.1957772486E-01,-.1177587307E-16
420,0.1047261339E-01,0.1712197252E-01,-.1177587307E-16
421,0.1019510254E-01,0.1361690275E-01,-.1177587307E-16
422,0.1229361910E-01,0.1079577580E-01,-.1177587307E-16
423,0.1573044434E-01,0.1005364303E-01,-.1177587307E-16
424,0.1880606450E-01,0.1175748929E-01,-.1177587307E-16
425,0.6502693146E-01,0.1999992691E-01,-.1177587307E-16
426,0.6148036942E-01,0.1855136640E-01,-.1177587307E-16
427,0.6000003219E-01,0.1501795463E-01,-.1177587307E-16
428,0.6145495549E-01,0.1147400215E-01,-.1177587307E-16
429,0.6499101967E-01,0.1000000816E-01,-.1177587307E-16
430,0.6853235513E-01,0.1146129053E-01,-.1177587307E-16
431,0.5361763295E-02,0.7223428786E-01,-.1177587307E-16
432,0.5755014252E-02,0.5385562032E-01,-.1177587307E-16
433,0.6367304921E-01,0.2848990820E-01,-.1177587307E-16
434,0.1130584441E-01,0.8046077937E-01,-.1177587307E-16
435,0.5713498220E-02,0.7797694951E-01,-.1177587307E-16
436,0.4830695689E-02,0.2176488377E-01,-.1177587307E-16
437,0.8022445440E-01,0.1162142586E-01,-.1177587307E-16
438,0.7801017910E-01,0.5785332527E-02,-.1177587307E-16
439,0.1060128026E-01,0.5013804510E-01,-.1177587307E-16
440,0.2873228677E-01,0.6340781599E-01,-.1177587307E-16
441,0.2788614109E-01,0.5840835162E-02,-.1177587307E-16
442,0.5376635864E-01,0.5747672636E-02,-.1177587307E-16
443,0.1776246168E-01,0.2849348448E-01,-.1177587307E-16
444,0.1153390296E-01,0.2670167014E-01,-.1177587307E-16
445,0.3907918464E-02,0.4040494561E-02,-.1177587307E-16
446,0.5624311510E-02,0.2782022394E-01,-.1177587307E-16
447,0.2973447740E-01,0.1213061530E-01,-.1177587307E-16
448,0.5727434158E-01,0.2628405392E-01,-.1177587307E-16
449,0.2624130808E-01,0.5711435527E-01,-.1177587307E-16
450,0.5009154975E-01,0.1066757645E-01,-.1177587307E-16
451,0.5263174698E-01,0.1539300382E-01,-.1177587307E-16
452,0.2870686539E-01,0.2014881931E-01,-.1177587307E-16
453,0.2093909122E-01,0.5153182894E-01,-.1177587307E-16
454,0.2465143241E-01,0.2599607781E-01,-.1177587307E-16
455,0.1535661984E-01,0.5246944353E-01,-.1177587307E-16
456,0.5187073722E-01,0.2107935399E-01,-.1177587307E-16
457,0.6207728386E-01,0.2307530306E-01,-.1177587307E-16
458,0.6807018816E-01,0.2366062254E-01,-.1177587307E-16
459,0.5703702103E-02,0.6636208296E-01,-.1177587307E-16
460,0.6442412268E-02,0.6062385067E-01,-.1177587307E-16
461,0.1527145226E-01,0.2337886579E-01,-.1177587307E-16
462,0.9012095630E-02,0.2142843418E-01,-.1177587307E-16
463,0.5892748013E-02,0.1585463993E-01,-.1177587307E-16
464,0.7250931114E-01,0.2053503506E-01,-.1177587307E-16
465,0.7515742630E-01,0.1634049043E-01,-.1177587307E-16
466,0.2449708246E-01,0.6650172919E-01,-.1177587307E-16
467,0.2280844189E-01,0.2039511874E-01,-.1177587307E-16
468,0.2289967425E-01,0.7008863240E-01,-.1177587307E-16
469,0.2447139472E-01,0.1617030613E-01,-.1177587307E-16
470,0.1966250129E-01,0.7274755836E-01,-.1177587307E-16
471,0.1113288570E-01,0.7358794659E-01,-.1177587307E-16
472,0.6057033315E-02,0.9984307922E-02,-.1177587307E-16
473,0.1373563521E-01,0.5976472981E-02,-.1177587307E-16
474,0.2327164821E-01,0.1100390404E-01,-.1177587307E-16
475,0.5662586167E-01,0.1116361469E-01,-.1177587307E-16
476,0.6056706607E-01,0.6424573716E-02,-.1177587307E-16
477,0.7356701046E-01,0.1118514873E-01,-.1177587307E-16
478,0.1582542434E-01,0.7620138675E-01,-.1177587307E-16
479,0.2281161025E-01,0.6158132106E-01,-.1177587307E-16
480,0.1959705725E-01,0.2304363623E-01,-.1177587307E-16
481,0.9342313744E-02,0.5513597745E-02,-.1177587307E-16
482,0.2241126820E-01,0.5336415488E-02,-.1177587307E-16
483,0.5754099786E-01,0.1976887882E-01,-.1177587307E-16
484,0.7157044113E-01,0.5904074758E-02,-.1177587307E-16
485,0.6605701149E-01,0.5680019502E-02,-.1177587307E-16
486,0.1165881939E-01,0.5692142621E-01,-.1177587307E-16
487,0.1865382120E-01,0.5713939294E-01,-.1177587307E-16
488,0.1807403378E-01,0.6312215235E-02,-.1177587307E-16
489,0.4615292326E-01,0.4615292326E-01,-.1177587307E-16
490,0.6072275806E-02,0.8469127119E-01,-.1177587307E-16
491,0.5412658677E-02,0.3437500075E-01,-.1177587307E-16
492,0.8484044671E-01,0.6446090061E-02,-.1177587307E-16
493,0.5484857410E-01,0.3745727241E-01,-.1177587307E-16
494,0.5050075054E-01,0.4180509597E-01,-.1177587307E-16
495,0.4180509597E-01,0.5050075054E-01,-.1177587307E-16
496,0.3302553296E-01,0.5916707963E-01,-.1177587307E-16
497,0.3745727241E-01,0.5484857410E-01,-.1177587307E-16
498,0.4687500000E-01,0.5412658677E-02,-.1177587307E-16
499,0.5412658677E-02,0.4062499851E-01,-.1177587307E-16
500,0.5395658314E-02,0.4695824161E-01,-.1177587307E-16
501,0.4013193399E-01,0.4447976127E-01,-.1177587307E-16
502,0.3411094472E-01,0.4280659556E-01,-.1177587307E-16
503,0.3845876828E-01,0.3845876828E-01,-.1177587307E-16
504,0.4062499851E-01,0.5412658677E-02,-.1177587307E-16
505,0.5919617414E-01,0.3304826096E-01,-.1177587307E-16
506,0.1082531735E-01,0.3750000149E-01,-.1177587307E-16
507,0.1107433438E-01,0.3153489903E-01,-.1177587307E-16
508,0.3406732529E-01,0.5767315626E-02,-.1177587307E-16
509,0.4882758483E-01,0.3578410670E-01,-.1177587307E-16
510,0.5317541212E-01,0.3143628314E-01,-.1177587307E-16
511,0.2931612357E-01,0.4681622982E-01,-.1177587307E-16
512,0.3578410670E-01,0.4882758483E-01,-.1177587307E-16
513,0.3143628314E-01,0.5317541212E-01,-.1177587307E-16
514,0.4683871567E-01,0.1643488370E-01,-.1177587307E-16
515,0.4374999925E-01,0.1082531735E-01,-.1177587307E-16
516,0.3713834658E-01,0.1096048579E-01,-.1177587307E-16
517,0.1069331728E-01,0.4369180650E-01,-.1177587307E-16
518,0.5133154243E-01,0.2591947652E-01,-.1177587307E-16
519,0.3071323037E-01,0.2690626867E-01,-.1177587307E-16
520,0.4082313180E-01,0.1647662558E-01,-.1177587307E-16
521,0.2248248644E-01,0.3188696876E-01,-.1177587307E-16
522,0.4447976127E-01,0.4013193399E-01,-.1177587307E-16
523,0.3432019427E-01,0.1643311419E-01,-.1177587307E-16
524,0.4710243642E-01,0.2970436029E-01,-.1177587307E-16
525,0.1638053916E-01,0.4060176387E-01,-.1177587307E-16
526,0.1596539281E-01,0.4648354277E-01,-.1177587307E-16
527,0.1639495045E-01,0.3452828154E-01,-.1177587307E-16
528,0.2568957210E-01,0.5094965920E-01,-.1177587307E-16
529,0.4271890596E-01,0.3408603370E-01,-.1177587307E-16
530,0.3238461912E-01,0.3672612831E-01,-.1177587307E-16
531,0.2804098837E-01,0.3265372664E-01,-.1177587307E-16
532,0.2219079435E-01,0.3765574470E-01,-.1177587307E-16
533,0.2773244865E-01,0.4044402763E-01,-.1177587307E-16
534,0.3424786404E-01,0.2180013992E-01,-.1177587307E-16
535,0.3594602272E-01,0.3223534673E-01,-.1177587307E-16
536,0.3953202441E-01,0.2192938142E-01,-.1177587307E-16
537,0.4117486253E-01,0.2807368711E-01,-.1177587307E-16
538,0.4550879821E-01,0.2288429625E-01,-.1177587307E-16
539,0.2222076990E-01,0.4464175552E-01,-.1177587307E-16
540,0.3579606488E-01,0.2676054090E-01,-.1177587307E-16
541,0.1855767891E-01,0.6851325184E-01,0.3580170218E-02
542,0.1855767891E-01,0.6851325184E-01,0.7160340436E-02
543,0.1855767891E-01,0.6851325184E-01,0.1074051112E-01
544,0.1855767891E-01,0.6851325184E-01,0.1418295316E-01
545,0.1855767891E-01,0.6851325184E-01,0.1735072955E-01
546,0.1996586286E-01,0.6558326632E-01,0.1594517380E-01
547,0.1948903501E-01,0.6279805303E-01,0.1690775342E-01
548,0.1540871803E-01,0.6998326629E-01,0.1628473774E-01
549,0.1565342396E-01,0.6995712221E-01,0.1243223343E-01
550,0.1550887246E-01,0.6997403502E-01,0.8825924248E-02
551,0.1002275944E-01,0.6547652185E-01,0.1602919959E-01
552,0.1097471081E-01,0.6203401834E-01,0.1599469595E-01
553,0.1385663729E-01,0.6013248116E-01,0.1605039462E-01
554,0.1292844862E-01,0.6955067813E-01,0.3049076302E-02
555,0.1039432641E-01,0.6694622338E-01,0.4033393227E-02
556,0.1044287998E-01,0.6294266135E-01,0.3962588031E-02
557,0.1733481139E-01,0.6057861447E-01,0.1602568477E-01
558,0.1308917534E-01,0.6037953123E-01,0.3876423230E-02
559,0.1707519405E-01,0.6045098230E-01,0.3939348739E-02
560,0.1952148601E-01,0.6286548078E-01,0.3051754786E-02
561,0.1146655343E-01,0.6853762269E-01,0.1687869988E-01
562,0.1562850364E-01,0.6996034086E-01,0.4946964793E-02
563,0.1997532882E-01,0.6549608707E-01,0.8824714459E-02
564,0.1995577849E-01,0.6566352397E-01,0.4687336273E-02
565,0.1997507550E-01,0.6549862027E-01,0.1246173214E-01
566,0.1895099692E-01,0.6193575263E-01,0.1386909932E-01
567,0.1909350231E-01,0.6212889776E-01,0.6316315383E-02
568,0.1927554421E-01,0.6240775809E-01,0.1037466712E-01
569,0.1282466017E-01,0.6950198859E-01,0.1427612174E-01
570,0.1498259045E-01,0.6000002846E-01,0.6003878545E-02
571,0.1153649855E-01,0.6139387190E-01,0.6671881769E-02
572,0.1000238489E-01,0.6484559178E-01,0.6679371465E-02
573,0.1208032016E-01,0.6905899942E-01,0.6346647628E-02
574,0.1568317041E-01,0.6004689261E-01,0.1373440865E-01
575,0.1229361910E-01,0.6079577655E-01,0.1327126473E-01
576,0.1019510254E-01,0.6361690164E-01,0.1327126473E-01
577,0.1047815476E-01,0.6713375449E-01,0.1384489704E-01
578,0.1230711676E-01,0.6921288371E-01,0.1057832316E-01
579,0.1019656565E-01,0.6638816744E-01,0.9886343032E-02
580,0.1689921692E-01,0.6037474424E-01,0.9807751514E-02
581,0.1082007401E-01,0.6225623935E-01,0.9932174347E-02
582,0.1376529317E-01,0.6015484780E-01,0.9918015450E-02
583,0.1855767891E-01,0.1851324923E-01,0.2644975437E-02
584,0.1855767891E-01,0.1851324923E-01,0.5880221259E-02
585,0.1855767891E-01,0.1851324923E-01,0.9308918379E-02
586,0.1855767891E-01,0.1851324923E-01,0.1287261210E-01
587,0.1855767891E-01,0.1851324923E-01,0.1643630676E-01
588,0.1996774226E-01,0.1556704286E-01,0.1531501208E-01
589,0.1996457763E-01,0.1559410617E-01,0.4079691134E-02
590,0.1551628299E-01,0.1997327432E-01,0.1503835618E-01
591,0.1042314619E-01,0.1298694033E-01,0.1615704410E-01
592,0.1302585099E-01,0.1040622871E-01,0.1609083265E-01
593,0.1510809176E-01,0.1999883167E-01,0.3542877035E-02
594,0.1139205322E-01,0.1846160740E-01,0.2984915394E-02
595,0.1002600696E-01,0.1550930832E-01,0.3899670439E-02
596,0.1095169410E-01,0.1206551120E-01,0.3864464816E-02
597,0.1951353252E-01,0.1284871437E-01,0.1696459949E-01
598,0.1378350612E-01,0.1015024260E-01,0.3973016515E-02
599,0.1727649942E-01,0.1054830942E-01,0.4028167576E-02
600,0.1290343981E-01,0.1953921095E-01,0.1695171185E-01
601,0.1038040314E-01,0.1691293716E-01,0.1615875028E-01
602,0.1555029582E-01,0.1996962540E-01,0.7545888890E-02
603,0.1535118651E-01,0.1998765208E-01,0.1130636781E-01
604,0.1949207671E-01,0.1280426793E-01,0.3096158616E-02
605,0.1688048430E-01,0.1036709826E-01,0.1614233293E-01
606,0.1997536235E-01,0.1549575571E-01,0.7594570052E-02
607,0.1998956688E-01,0.1532283239E-01,0.1138439309E-01
608,0.1894908026E-01,0.1193328016E-01,0.6153604481E-02
609,0.1923867874E-01,0.1234790497E-01,0.9720116854E-02
610,0.1229422633E-01,0.1920461468E-01,0.9479813278E-02
611,0.1254349668E-01,0.1935495064E-01,0.5548437126E-02
612,0.1175555959E-01,0.1880441979E-01,0.1376411319E-01
613,0.1553541981E-01,0.1002874970E-01,0.6796455942E-02
614,0.1881132275E-01,0.1176367234E-01,0.1383118145E-01
615,0.1229361910E-01,0.1079577580E-01,0.6728735752E-02
616,0.1014901977E-01,0.1378839463E-01,0.6285144016E-02
617,0.1044277009E-01,0.1705710031E-01,0.6179566029E-02
618,0.1498521678E-01,0.1000002213E-01,0.1346060727E-01
619,0.1150074508E-01,0.1142855547E-01,0.1332464069E-01
620,0.1000015251E-01,0.1496092230E-01,0.1399374474E-01
621,0.1018626243E-01,0.1635200903E-01,0.1019904111E-01
622,0.1672913693E-01,0.1030850969E-01,0.1017227303E-01
623,0.1049329713E-01,0.1283444464E-01,0.1016903482E-01
624,0.1312764362E-01,0.1036380790E-01,0.1005700883E-01
625,0.6855767965E-01,0.1851324923E-01,0.3580170218E-02
626,0.6855767965E-01,0.1851324923E-01,0.7160340436E-02
627,0.6855767965E-01,0.1851324923E-01,0.1074051112E-01
628,0.6855767965E-01,0.1851324923E-01,0.1418295316E-01
629,0.6855767965E-01,0.1851324923E-01,0.1735072955E-01
630,0.6996586174E-01,0.1558326837E-01,0.1594517380E-01
631,0.6948903203E-01,0.1279805414E-01,0.1690775342E-01
632,0.6540872157E-01,0.1998326741E-01,0.1628473774E-01
633,0.6565342098E-01,0.1995711960E-01,0.1243223343E-01
634,0.6550887227E-01,0.1997403800E-01,0.8825924248E-02
635,0.6002276018E-01,0.1547652390E-01,0.1602919959E-01
636,0.6097470969E-01,0.1203401759E-01,0.1599469595E-01
637,0.6385663897E-01,0.1013248321E-01,0.1605039462E-01
638,0.6292844564E-01,0.1955067925E-01,0.3049076302E-02
639,0.6039432809E-01,0.1694622077E-01,0.4033393227E-02
640,0.6044287980E-01,0.1294265874E-01,0.3962588031E-02
641,0.6733480841E-01,0.1057861373E-01,0.1602568477E-01
642,0.6308917701E-01,0.1037952956E-01,0.3876423230E-02
643,0.6707519293E-01,0.1045098063E-01,0.3939348739E-02
644,0.6952148676E-01,0.1286548097E-01,0.3051754786E-02
645,0.6146655232E-01,0.1853762008E-01,0.1687869988E-01
646,0.6562850624E-01,0.1996034011E-01,0.4946964793E-02
647,0.6997533143E-01,0.1549608819E-01,0.8824714459E-02
648,0.6995578110E-01,0.1566352695E-01,0.4687336273E-02
649,0.6997507811E-01,0.1549862046E-01,0.1246173214E-01
650,0.6895099580E-01,0.1193575095E-01,0.1386909932E-01
651,0.6909350306E-01,0.1212889608E-01,0.6316315383E-02
652,0.6927554309E-01,0.1240775827E-01,0.1037466712E-01
653,0.6282465905E-01,0.1950198784E-01,0.1427612174E-01
654,0.6498259306E-01,0.1000003051E-01,0.6003878545E-02
655,0.6153649837E-01,0.1139387209E-01,0.6671881769E-02
656,0.6000238657E-01,0.1484559011E-01,0.6679371465E-02
657,0.6208031997E-01,0.1905899867E-01,0.6346647628E-02
658,0.6568317115E-01,0.1004689187E-01,0.1373440865E-01
659,0.6229361892E-01,0.1079577580E-01,0.1327126473E-01
660,0.6019510329E-01,0.1361690275E-01,0.1327126473E-01
661,0.6047815457E-01,0.1713375747E-01,0.1384489704E-01
662,0.6230711564E-01,0.1921288297E-01,0.1057832316E-01
663,0.6019656733E-01,0.1638817042E-01,0.9886343032E-02
664,0.6689921767E-01,0.1037474629E-01,0.9807751514E-02
665,0.6082007289E-01,0.1225624047E-01,0.9932174347E-02
666,0.6376529485E-01,0.1015484799E-01,0.9918015450E-02
667,0.1004590560E-01,0.4585126042E-01,0.1545368973E-01
668,0.1100421045E-01,0.4131170362E-01,0.1200352237E-01
669,0.1511792000E-01,0.4262986407E-01,0.1607346907E-01
670,0.8256503381E-02,0.3994407505E-01,0.1615910232E-01
671,0.7118341513E-02,0.4139204696E-01,0.9019376710E-02
672,0.3535000607E-02,0.3652221337E-01,0.1240601018E-01
673,0.7537094411E-02,0.3574317321E-01,0.8127822541E-02
674,0.3918658476E-02,0.4374118149E-01,0.1398172695E-01
675,0.2228823118E-01,0.3992766142E-02,0.1015903242E-01
676,0.2620670758E-01,0.5920039490E-02,0.6654913537E-02
677,0.2604861371E-01,0.2798495814E-02,0.3449314274E-02
678,0.2798913978E-01,0.3491749289E-02,0.9174031205E-02
679,0.2457230911E-01,0.8012605831E-02,0.3710895078E-02
680,0.1978076622E-01,0.3688172903E-02,0.5282152910E-02
681,0.3045765869E-01,0.7423728704E-02,0.3671964165E-02
682,0.3131665662E-01,0.3567080246E-02,0.5899655633E-02
683,0.2467868105E-01,0.1325579919E-01,0.4128812347E-02
684,0.2459023893E-01,0.1814693585E-01,0.5791404285E-02
685,0.2205502614E-01,0.1283192355E-01,0.6597900297E-02
686,0.3686032817E-01,0.4513154272E-02,0.1456883643E-01
687,0.3394715488E-01,0.4418313038E-02,0.9561873041E-02
688,0.3770387173E-01,0.3387491219E-02,0.5448067095E-02
689,0.3106905334E-01,0.3654893022E-02,0.1355969906E-01
690,0.3173913062E-01,0.7972423919E-02,0.1053810772E-01
691,0.1033461001E-01,0.3500970453E-01,0.1522771269E-01
692,0.7419291884E-02,0.3091138974E-01,0.9782520123E-02
693,0.3632513341E-02,0.3116078675E-01,0.1427568495E-01
694,0.3593769390E-02,0.3177516162E-01,0.6089892704E-02
695,0.7337761577E-02,0.3143870085E-01,0.3219769336E-02
696,0.1078116335E-01,0.3903855011E-01,0.5005083978E-02
697,0.1165558770E-01,0.3392471001E-01,0.9912054986E-02
698,0.1137833949E-01,0.2626240440E-01,0.9955104440E-02
699,0.1157343294E-01,0.2775762230E-01,0.5317950621E-02
700,0.1660166495E-01,0.3111542575E-01,0.9421582334E-02
701,0.1647474617E-01,0.2543997206E-01,0.9261498228E-02
702,0.2183148824E-01,0.9683685377E-02,0.9679750539E-02
703,0.2693621069E-01,0.1005208585E-01,0.7460297085E-02
704,0.1732961833E-01,0.2263074741E-01,0.8794880472E-02
705,0.1801845804E-01,0.2267958783E-01,0.1450994425E-01
706,0.2086035907E-01,0.2243162133E-01,0.1139563136E-01
707,0.2009150572E-01,0.8168977685E-02,0.5452767480E-02
708,0.1196454279E-01,0.4428362101E-01,0.5077418406E-02
709,0.1538194995E-01,0.4380907118E-01,0.1002624165E-01
710,0.1062208507E-01,0.4689301550E-01,0.1000040956E-01
711,0.6360195577E-01,0.7067772560E-02,0.3857949516E-02
712,0.4483595863E-01,0.4927021265E-01,0.1466076635E-01
713,0.4707054794E-01,0.4272279888E-01,0.1661298051E-01
714,0.4318200052E-01,0.4426398128E-01,0.1365158893E-01
715,0.4642060399E-01,0.3911598027E-01,0.1550189406E-01
716,0.3996257111E-01,0.3933432326E-01,0.1598422602E-01
717,0.3934612125E-01,0.4516259953E-01,0.8379261009E-02
718,0.4564724118E-01,0.4299879819E-01,0.9543010965E-02
719,0.8732357062E-02,0.8618073910E-01,0.8086067624E-02
720,0.6679355633E-02,0.8844348043E-01,0.4546196200E-02
721,0.4066944867E-01,0.3912051767E-01,0.1027008239E-01
722,0.8222965896E-01,0.5421476439E-02,0.9533138946E-02
723,0.7548034191E-01,0.6025136914E-02,0.6859424058E-02
724,0.7924310118E-01,0.1234256290E-01,0.7058488671E-02
725,0.8124376088E-01,0.3949281294E-02,0.4330652300E-02
726,0.8766202629E-01,0.4552569240E-02,0.4146800376E-02
727,0.7559283823E-01,0.8763465099E-02,0.3993229009E-02
728,0.7531500608E-01,0.3525387030E-02,0.3966932185E-02
729,0.7822804898E-01,0.3511095187E-02,0.9268895723E-02
730,0.5535100121E-02,0.7573560625E-01,0.1231395174E-01
731,0.3105786396E-02,0.7551941276E-01,0.1602869295E-01
732,0.1671857014E-01,0.7279954106E-01,0.3101913957E-02
733,0.3725575283E-02,0.8129010350E-01,0.1620115526E-01
734,0.4810255021E-02,0.7098547369E-01,0.1447195560E-01
735,0.4183126148E-02,0.7244442403E-01,0.1126175560E-01
736,0.3542843508E-02,0.7810462266E-01,0.1101820916E-01
737,0.5724219605E-02,0.8165854961E-01,0.1070888620E-01
738,0.8632709272E-02,0.7986208051E-01,0.1574874669E-01
739,0.1039105561E-01,0.8439072967E-01,0.1387414802E-01
740,0.2948222309E-01,0.1703995839E-01,0.4149240442E-02
741,0.3103065491E-01,0.1180441771E-01,0.6579856854E-02
742,0.3283600137E-01,0.1398466062E-01,0.1011879928E-01
743,0.2611558326E-01,0.1352839451E-01,0.1055356488E-01
744,0.1212811004E-01,0.8308023214E-01,0.3791953437E-02
745,0.2142351680E-01,0.1810548641E-01,0.1378468983E-01
746,0.2129258402E-01,0.1893291622E-01,0.7434841711E-02
747,0.2526645176E-01,0.1956030168E-01,0.1043077465E-01
748,0.2243968844E-01,0.1517262589E-01,0.9218789637E-02
749,0.2381235734E-01,0.1475234516E-01,0.1451658458E-01
750,0.2953837812E-01,0.2113489248E-01,0.9882001206E-02
751,0.2846475318E-01,0.2296326682E-01,0.4627606831E-02
752,0.2615266480E-01,0.5914703477E-02,0.1281506475E-01
753,0.2576425299E-01,0.3026935039E-02,0.1633750834E-01
754,0.2486963011E-01,0.8245054632E-02,0.1610742882E-01
755,0.3033886105E-01,0.7145368494E-02,0.1625536382E-01
756,0.6844352186E-01,0.5976491608E-02,0.4327432252E-02
757,0.2183869109E-01,0.6306130439E-01,0.6345479749E-02
758,0.2376546897E-01,0.6603328884E-01,0.7759295870E-02
759,0.8081882447E-01,0.1456759125E-01,0.3541739890E-02
760,0.4181705881E-02,0.8994758874E-01,0.9711034596E-02
761,0.8375357836E-01,0.9782421403E-02,0.3487553447E-02
762,0.7628521323E-01,0.1312188432E-01,0.3936223686E-02
763,0.7638055366E-02,0.1129305921E-01,0.6541782990E-02
764,0.6285657641E-02,0.1296739932E-01,0.3511723364E-02
765,0.7632721215E-02,0.8096741885E-01,0.3764146473E-02
766,0.3019938804E-01,0.2057076618E-01,0.1469605416E-01
767,0.2195945382E-01,0.2361379936E-01,0.7352175191E-02
768,0.2645541541E-01,0.5579394475E-01,0.1488610636E-01
769,0.2439716458E-01,0.5966471508E-01,0.1247065235E-01
770,0.2869003639E-01,0.5431980267E-01,0.1001262106E-01
771,0.2258481830E-01,0.5598516390E-01,0.1042312384E-01
772,0.2234712429E-01,0.5509519204E-01,0.1590380073E-01
773,0.2071603388E-01,0.5936161056E-01,0.1307995617E-01
774,0.1870763488E-01,0.5145488679E-01,0.1324632671E-01
775,0.1745986007E-01,0.5695150420E-01,0.1238556299E-01
776,0.5113356188E-01,0.3560152277E-01,0.1580142230E-01
777,0.5429402366E-01,0.2984131500E-01,0.1432081684E-01
778,0.4815662280E-01,0.2962811850E-01,0.9803604335E-02
779,0.5109636486E-01,0.3362824768E-01,0.9786434472E-02
780,0.5252851546E-01,0.3082443587E-01,0.6286685355E-02
781,0.5630288273E-01,0.2930927090E-01,0.9616997093E-02
782,0.5739583820E-01,0.3666479141E-01,0.6404930726E-02
783,0.5623485520E-01,0.3884843737E-01,0.9715114720E-02
784,0.5089070648E-01,0.3893646225E-01,0.9023781866E-02
785,0.5365841091E-01,0.4136357829E-01,0.1337519381E-01
786,0.4642022774E-01,0.3116007894E-01,0.4310342018E-02
787,0.4603230581E-01,0.3570576757E-01,0.9974495508E-02
788,0.4687442631E-01,0.3679872677E-01,0.4523253068E-02
789,0.5136653781E-01,0.3835769743E-01,0.3604235128E-02
790,0.1304112747E-01,0.2295308001E-01,0.6770197768E-02
791,0.1344659179E-01,0.2239977755E-01,0.9847855195E-02
792,0.1767458394E-01,0.2460917085E-01,0.3514900338E-02
793,0.1511918288E-01,0.2772809379E-01,0.4536834080E-02
794,0.1082203537E-01,0.2152689174E-01,0.2861022018E-02
795,0.6545653194E-01,0.2771865390E-01,0.1320858672E-01
796,0.6812730432E-01,0.2618769370E-01,0.1608161628E-01
797,0.5091234297E-01,0.2674283460E-01,0.4269062076E-02
798,0.2902972884E-01,0.6454800814E-01,0.9827744216E-02
799,0.2436750755E-01,0.6541611254E-01,0.1185211912E-01
800,0.2487049438E-01,0.5984034017E-01,0.7940120995E-02
801,0.3215071931E-01,0.6266142428E-01,0.7056888659E-02
802,0.3325880319E-01,0.5548920482E-01,0.1090825442E-01
803,0.3229238838E-01,0.6270708144E-01,0.1345432922E-01
804,0.2925721370E-01,0.5922548100E-01,0.1095774304E-01
805,0.2975888364E-01,0.6035367027E-01,0.1661934145E-01
806,0.4029384628E-01,0.4148188233E-01,0.3849782050E-02
807,0.4162976891E-01,0.4629945382E-01,0.3584333230E-02
808,0.3670942783E-01,0.4576791078E-01,0.3852766240E-02
809,0.7495807949E-02,0.5111178011E-01,0.1266282983E-01
810,0.1377700828E-01,0.5080243945E-01,0.9829349816E-02
811,0.1060569938E-01,0.5336971581E-01,0.7521784864E-02
812,0.1061188616E-01,0.4851685092E-01,0.5001373589E-02
813,0.3902093507E-02,0.5005967617E-01,0.6146324333E-02
814,0.1190630533E-01,0.5689073727E-01,0.1419387292E-01
815,0.1301137358E-01,0.5709718913E-01,0.6761078257E-02
816,0.6888864934E-01,0.2609281801E-01,0.1067281235E-01
817,0.1506083831E-01,0.5247800797E-01,0.5163241178E-02
818,0.2977969125E-01,0.1207614783E-01,0.1346320193E-01
819,0.4708283022E-01,0.2395143546E-01,0.4525549710E-02
820,0.4385026172E-01,0.1893159375E-01,0.9767649695E-02
821,0.4704513773E-01,0.2145325951E-01,0.1301852707E-01
822,0.4326805100E-01,0.2549582720E-01,0.9952446446E-02
823,0.5089735612E-01,0.2572732978E-01,0.9844467975E-02
824,0.3454765305E-01,0.3538097814E-01,0.1014755387E-01
825,0.3630430624E-01,0.4063748568E-01,0.1004200056E-01
826,0.4007402807E-01,0.2916937880E-01,0.5023938138E-02
827,0.3454430774E-01,0.3351099789E-01,0.4964171443E-02
828,0.3472545743E-01,0.2674650773E-01,0.9898696095E-02
829,0.3234238550E-01,0.2878021076E-01,0.1634111069E-01
830,0.3411004692E-01,0.3710678592E-01,0.1550673135E-01
831,0.2901977673E-01,0.3056214377E-01,0.1124423277E-01
832,0.2521282993E-01,0.6942859292E-01,0.6427062675E-02
833,0.2197467349E-01,0.6798754632E-01,0.2768762875E-02
834,0.2153233998E-01,0.6788656861E-01,0.7105637342E-02
835,0.2280738764E-01,0.6939185411E-01,0.1109301485E-01
836,0.2231207304E-01,0.7179082185E-01,0.5332006142E-02
837,0.2071832307E-01,0.7332366705E-01,0.9075582959E-02
838,0.1764949784E-01,0.7147087902E-01,0.7355548907E-02
839,0.2266402915E-01,0.2764740586E-01,0.1536189578E-01
840,0.2576985769E-01,0.2465765923E-01,0.1116839517E-01
841,0.2310780250E-01,0.3165018186E-01,0.1315971278E-01
842,0.2743009664E-01,0.2912494913E-01,0.1537945773E-01
843,0.2833803184E-01,0.3584340960E-01,0.1634348556E-01
844,0.5583748594E-01,0.2860883810E-01,0.4340424668E-02
845,0.5511459336E-01,0.2188231423E-01,0.8883426897E-02
846,0.5783818662E-01,0.2596899681E-01,0.1332393289E-01
847,0.4983213171E-01,0.2310211025E-01,0.1507025585E-01
848,0.5092388764E-01,0.1987282559E-01,0.4869681317E-02
849,0.4931326210E-01,0.1925386861E-01,0.9343122132E-02
850,0.1375301834E-01,0.7799368352E-01,0.3927886020E-02
851,0.4737854004E-01,0.2741469070E-01,0.1528217178E-01
852,0.3951022401E-01,0.3465693444E-01,0.4247997422E-02
853,0.4218797386E-01,0.3184448928E-01,0.9989409707E-02
854,0.4556087032E-01,0.3487247974E-01,0.1610140875E-01
855,0.4258212075E-01,0.3893627599E-01,0.4514566157E-02
856,0.3672384471E-01,0.3765782341E-01,0.4828876816E-02
857,0.5678457022E-01,0.1662072167E-01,0.3935794346E-02
858,0.7733819634E-01,0.1643803157E-01,0.1079987362E-01
859,0.8019535989E-01,0.1446330547E-01,0.1467854436E-01
860,0.7723042369E-01,0.1198034827E-01,0.1625885814E-01
861,0.7762685418E-01,0.6952141412E-02,0.1371628977E-01
862,0.7669746131E-01,0.1063370612E-01,0.1018689107E-01
863,0.8230932057E-01,0.1240290049E-01,0.1101282798E-01
864,0.8409798145E-01,0.1022911910E-01,0.1602211781E-01
865,0.5754408613E-01,0.3606663272E-01,0.1388524845E-01
866,0.4429832473E-01,0.4967833683E-01,0.5942505319E-02
867,0.4963800311E-01,0.4545602202E-01,0.6777602248E-02
868,0.2597391978E-01,0.2873661742E-01,0.4966320470E-02
869,0.3041621111E-01,0.2816291340E-01,0.7045769133E-02
870,0.2138308994E-01,0.2309250645E-01,0.1646271162E-01
871,0.3061621450E-01,0.2514693700E-01,0.1478393469E-01
872,0.2129490115E-01,0.2786741778E-01,0.9163856506E-02
873,0.1207743771E-01,0.5072468892E-01,0.1483906899E-01
874,0.3453435143E-02,0.4374564067E-01,0.6352590863E-02
875,0.3538532881E-02,0.4705131054E-01,0.1078641787E-01
876,0.7079439238E-02,0.4371057823E-01,0.3225383116E-02
877,0.1589706540E-01,0.4636893794E-01,0.5103236996E-02
878,0.1610375196E-01,0.4815476388E-01,0.1563572697E-01
879,0.3639277304E-02,0.5292899534E-01,0.1039257273E-01
880,0.3563720034E-02,0.5000363663E-01,0.1523428131E-01
881,0.1785921678E-01,0.7697743177E-01,0.6458779797E-02
882,0.3425794095E-01,0.4465569556E-01,0.1519268379E-01
883,0.3282856196E-01,0.4862240329E-01,0.1003991067E-01
884,0.3914092854E-01,0.4669095203E-01,0.1566703245E-01
885,0.3893081471E-01,0.5090155825E-01,0.9033244103E-02
886,0.3372045606E-01,0.4131269082E-01,0.5063347984E-02
887,0.2182407118E-01,0.4014459997E-01,0.1114690490E-01
888,0.1561663672E-01,0.3861326352E-01,0.9987934493E-02
889,0.2925700508E-01,0.4152179882E-01,0.1496900339E-01
890,0.3149898723E-01,0.4141635075E-01,0.9996176697E-02
891,0.2756774984E-01,0.3716592118E-01,0.1072364766E-01
892,0.2633570507E-01,0.4421610385E-01,0.6852688268E-02
893,0.2659910731E-01,0.3843603283E-01,0.5164353177E-02
894,0.2214134671E-01,0.4200901836E-01,0.6214206107E-02
895,0.2222087048E-01,0.4666703567E-01,0.1425703615E-01
896,0.1972030103E-01,0.3382812068E-01,0.9063174017E-02
897,0.2432097122E-01,0.3601666540E-01,0.5322745070E-02
898,0.7054724544E-01,0.8412728086E-02,0.7204892114E-02
899,0.7231753320E-01,0.1529525686E-01,0.1675635763E-01
900,0.7205609232E-01,0.1265595853E-01,0.1343777310E-01
901,0.7239536196E-01,0.1011934038E-01,0.1677150652E-01
902,0.7039139420E-01,0.8608458564E-02,0.1500792522E-01
903,0.7389348000E-01,0.8013132028E-02,0.1599566266E-01
904,0.4136332497E-01,0.1060377434E-01,0.4820058122E-02
905,0.3747561947E-01,0.9329808876E-02,0.9894029237E-02
906,0.4060451686E-01,0.3521075472E-02,0.1008362044E-01
907,0.6734023243E-01,0.2196036093E-01,0.1310924627E-01
908,0.3948029876E-01,0.1023728587E-01,0.1537167933E-01
909,0.4497684538E-01,0.1093656849E-01,0.9628362954E-02
910,0.4378310964E-01,0.3563350299E-02,0.1368200313E-01
911,0.4506910220E-01,0.3502069507E-02,0.6687561516E-02
912,0.1031280030E-01,0.7622589171E-01,0.1036402397E-01
913,0.4664349370E-02,0.7547748834E-01,0.6653076503E-02
914,0.1027129963E-01,0.7210823894E-01,0.1174304634E-01
915,0.1180492248E-01,0.7372931391E-01,0.1654147170E-01
916,0.1391061768E-01,0.7197085023E-01,0.1306170598E-01
917,0.1225872617E-01,0.8163861930E-01,0.8362459950E-02
918,0.8094135672E-02,0.7479307055E-01,0.3863640130E-02
919,0.1072379109E-01,0.2210925706E-01,0.1240690239E-01
920,0.1460756455E-01,0.2236586809E-01,0.1441933587E-01
921,0.5069270730E-02,0.6691594608E-02,0.3482866101E-02
922,0.3994522616E-02,0.1182827447E-01,0.6215225440E-02
923,0.3839761019E-02,0.8463026024E-02,0.8672790602E-02
924,0.8716490120E-02,0.6682831794E-02,0.5563979503E-02
925,0.4627977032E-02,0.3931350540E-02,0.3975323867E-02
926,0.1062517613E-01,0.8257986978E-02,0.3410090692E-02
927,0.8516882546E-02,0.7519768924E-01,0.1599333435E-01
928,0.1351442840E-01,0.7975137979E-01,0.1594881527E-01
929,0.7587605622E-02,0.6739094108E-01,0.1360374596E-01
930,0.9029201232E-02,0.7068754733E-01,0.1401495468E-01
931,0.7183352485E-02,0.6872352958E-01,0.1640500128E-01
932,0.3701302456E-02,0.6722129881E-01,0.1367158722E-01
933,0.3483298700E-02,0.3750057146E-01,0.5902161822E-02
934,0.2228625119E-01,0.2303109504E-01,0.3671472427E-02
935,0.2088604867E-01,0.2861906588E-01,0.3493359545E-02
936,0.1825366355E-01,0.2155354992E-01,0.4881275818E-02
937,0.2510570735E-01,0.1913043298E-01,0.1622455567E-01
938,0.4666867852E-01,0.1045092940E-01,0.1553383376E-01
939,0.4954097047E-01,0.7164821029E-02,0.8953381330E-02
940,0.5071036518E-01,0.7405254990E-02,0.1625849865E-01
941,0.5472610146E-01,0.7825182751E-02,0.1254800707E-01
942,0.5007737130E-01,0.3578501288E-02,0.1352696121E-01
943,0.5170285702E-01,0.1294197608E-01,0.1523966156E-01
944,0.5450784042E-01,0.3619269701E-02,0.8491305634E-02
945,0.5321275070E-01,0.9538679384E-02,0.7450341247E-02
946,0.5116880685E-01,0.1474369317E-01,0.9247208014E-02
947,0.4720299691E-01,0.1038432866E-01,0.3906781785E-02
948,0.6024013460E-01,0.2082921937E-01,0.8386998437E-02
949,0.5928937718E-01,0.2328609861E-01,0.3968174569E-02
950,0.6095118821E-01,0.2705260366E-01,0.5339189433E-02
951,0.5609615520E-01,0.2287254855E-01,0.1612010784E-01
952,0.5945700780E-01,0.2080934308E-01,0.1356177125E-01
953,0.7372536510E-01,0.1947367005E-01,0.1560639590E-01
954,0.7592582703E-01,0.1903694496E-01,0.1376547106E-01
955,0.7118649036E-01,0.1880447753E-01,0.1763240807E-01
956,0.7174009830E-01,0.1701429114E-01,0.1298994012E-01
957,0.4944680631E-01,0.4514716566E-01,0.1456363965E-01
958,0.6609714776E-01,0.2370977402E-01,0.7759221364E-02
959,0.6469564885E-01,0.2384487726E-01,0.3268460510E-02
960,0.6326790899E-01,0.2187558264E-01,0.4868584219E-02
961,0.6051120535E-01,0.2133980766E-01,0.3149098717E-02
962,0.3656718647E-02,0.6020839512E-01,0.1416961476E-01
963,0.6765568163E-02,0.6231426820E-01,0.1571842283E-01
964,0.2668029163E-02,0.6253904849E-01,0.1714830659E-01
965,0.5873533897E-02,0.6371425092E-01,0.9959755465E-02
966,0.2984475903E-01,0.5256331712E-01,0.1487701666E-01
967,0.2775768563E-01,0.4784967750E-01,0.1221993659E-01
968,0.2814569138E-01,0.5188610032E-01,0.4924569745E-02
969,0.3365050629E-01,0.5218094960E-01,0.4342605826E-02
970,0.3804598236E-02,0.8458950371E-01,0.7811125834E-02
971,0.3715389222E-01,0.1094335038E-01,0.6660889369E-02
972,0.4010747746E-01,0.1444335934E-01,0.1115653757E-01
973,0.3692051768E-01,0.7639964111E-02,0.4054771271E-02
974,0.5544597749E-02,0.8751588315E-01,0.1404491253E-01
975,0.9228066541E-02,0.5751616880E-01,0.1637880132E-01
976,0.4392385483E-02,0.5634542182E-01,0.1328181569E-01
977,0.7218342740E-02,0.5007330328E-01,0.1645001769E-01
978,0.7907020859E-02,0.6063469499E-01,0.1213475596E-01
979,0.7269440591E-01,0.1972807571E-01,0.8743702434E-02
980,0.6909357011E-01,0.2217143960E-01,0.9352518246E-02
981,0.7376113534E-01,0.2154451609E-01,0.1183147356E-01
982,0.7175357640E-01,0.2419757657E-01,0.7302158512E-02
983,0.7252926379E-01,0.3753069555E-02,0.1129245758E-01
984,0.7047293335E-01,0.3882793244E-02,0.1623904891E-01
985,0.8115007728E-01,0.4213428125E-02,0.1598321088E-01
986,0.7046221942E-01,0.2301700041E-01,0.4162515048E-02
987,0.6703005731E-01,0.2783779055E-01,0.6198876537E-02
988,0.7275989652E-01,0.1236752700E-01,0.7721054833E-02
989,0.7207770646E-01,0.1397025771E-01,0.1052990556E-01
990,0.1753522642E-01,0.4165861383E-01,0.4788689781E-02
991,0.4886879027E-01,0.1776623540E-01,0.1500951778E-01
992,0.3950297087E-01,0.2411670610E-01,0.4448368680E-02
993,0.4072295502E-01,0.1647038199E-01,0.6584517192E-02
994,0.4534842446E-01,0.2007848024E-01,0.3994877450E-02
995,0.3352211043E-01,0.1057207119E-01,0.1611208916E-01
996,0.2105508745E-01,0.1890852116E-01,0.2396843396E-02
997,0.7674069144E-02,0.6022838876E-01,0.7513969671E-02
998,0.3828678280E-02,0.5760590732E-01,0.3359737340E-02
999,0.8221737109E-02,0.5815401673E-01,0.3816922428E-02
1000,0.6190494634E-02,0.5400377885E-01,0.4949970171E-02
1001,0.1130734291E-01,0.5373185501E-01,0.3648370970E-02
1002,0.5543706566E-01,0.1628848165E-01,0.1213279739E-01
1003,0.2247127518E-01,0.5943383649E-01,0.4013766535E-02
1004,0.9249624796E-02,0.5857346952E-01,0.9988024831E-02
1005,0.7343979925E-01,0.1683568768E-01,0.7353249472E-02
1006,0.7122389972E-01,0.9271336719E-02,0.1065603178E-01
1007,0.3535247594E-01,0.2184963040E-01,0.1291837730E-01
1008,0.3874062374E-01,0.3251739219E-01,0.1616893150E-01
1009,0.3989554942E-01,0.2598658763E-01,0.1491802558E-01
1010,0.3517803922E-01,0.2228898741E-01,0.4116203170E-02
1011,0.3415364027E-01,0.2863026224E-01,0.3885968588E-02
1012,0.5808750913E-01,0.8869734593E-02,0.3698373679E-02
1013,0.5012689903E-01,0.4089085385E-02,0.5091140512E-02
1014,0.5680043623E-01,0.1168945525E-01,0.9690238163E-02
1015,0.5188439041E-01,0.1432398707E-01,0.4701922648E-02
1016,0.5738447979E-01,0.8218639530E-02,0.9681738913E-02
1017,0.3322685137E-01,0.5635221675E-01,0.4603617825E-02
1018,0.2089048922E-01,0.4834273085E-01,0.4686318338E-02
1019,0.2357466146E-01,0.5153537169E-01,0.1236385014E-01
1020,0.1950335130E-01,0.5571245402E-01,0.4989877809E-02
1021,0.2784336358E-01,0.5679065362E-01,0.4888747353E-02
1022,0.3682639822E-01,0.5817499012E-01,0.6765445694E-02
1023,0.7253866643E-01,0.1384677459E-01,0.4379417282E-02
1024,0.7329894602E-01,0.1890937984E-01,0.4172568209E-02
1025,0.7596652955E-01,0.1892886125E-01,0.6206744350E-02
1026,0.7126218826E-01,0.1023159735E-01,0.2800017595E-02
1027,0.3803529590E-01,0.1916308887E-01,0.9757798165E-02
1028,0.5712821335E-01,0.1704715006E-01,0.6599566899E-02
1029,0.3676575795E-01,0.1542986464E-01,0.4273536149E-02
1030,0.3542022035E-01,0.1816494204E-01,0.1569304615E-01
1031,0.4165482707E-02,0.5770040303E-01,0.8014990017E-02
1032,0.4051034804E-02,0.6260671467E-01,0.3678303445E-02
1033,0.1259937137E-01,0.7156088948E-02,0.1322349999E-01
1034,0.8468426764E-02,0.3938703798E-02,0.9915768169E-02
1035,0.4927690607E-02,0.5072479136E-02,0.1533080637E-01
1036,0.1448800135E-01,0.4640011583E-02,0.1636710577E-01
1037,0.1087666582E-01,0.3061636910E-01,0.1361405943E-01
1038,0.1302736625E-01,0.2570415288E-01,0.1604449563E-01
1039,0.8597436361E-02,0.2583904006E-01,0.1608535461E-01
1040,0.9420736693E-02,0.2223715559E-01,0.8783109486E-02
1041,0.7570328657E-02,0.2628770471E-01,0.8592885919E-02
1042,0.1512627024E-01,0.5570396408E-01,0.3672929714E-02
1043,0.1901597902E-01,0.3057434782E-01,0.1550299022E-01
1044,0.1414075680E-01,0.3437550366E-01,0.1563139260E-01
1045,0.1832431741E-01,0.3615467250E-01,0.3904017853E-02
1046,0.2369582467E-01,0.5394281074E-01,0.3847855143E-02
1047,0.5400865898E-01,0.4101877287E-01,0.5803953391E-02
1048,0.2368412353E-01,0.3275569528E-01,0.5097021814E-02
1049,0.4708181694E-01,0.4274187610E-01,0.3623626893E-02
1050,0.3005466983E-01,0.3560243919E-01,0.5506224930E-02
1051,0.2672047354E-01,0.3325580433E-01,0.7009168155E-02
1052,0.2493354119E-01,0.6358963996E-01,0.3468869021E-02
1053,0.8660195768E-01,0.7787382696E-02,0.7915866561E-02
1054,0.9101167321E-01,0.3804674372E-02,0.1031095721E-01
1055,0.8453043178E-02,0.1958777010E-01,0.3927255981E-02
1056,0.3707281081E-02,0.1946908049E-01,0.4568825942E-02
1057,0.5588410888E-02,0.1682422496E-01,0.6421751808E-02
1058,0.7490341086E-02,0.1411447860E-01,0.1014754269E-01
1059,0.8797390759E-01,0.6043665577E-02,0.1573105156E-01
1060,0.6428311020E-01,0.2924852259E-01,0.1024548709E-01
1061,0.6056376547E-01,0.2888764814E-01,0.1642214507E-01
1062,0.6265331060E-01,0.3252185136E-01,0.1400623564E-01
1063,0.6265626848E-01,0.3202416748E-01,0.6486300379E-02
1064,0.5543040484E-01,0.3366299719E-01,0.2976323711E-02
1065,0.1933687180E-01,0.8204244077E-02,0.1672138833E-01
1066,0.2122008987E-01,0.1081985142E-01,0.1608959213E-01
1067,0.2534453757E-01,0.1267573424E-01,0.1593252085E-01
1068,0.1778900623E-01,0.7591285557E-01,0.1487672981E-01
1069,0.1705656387E-01,0.7344166934E-01,0.1730347425E-01
1070,0.1933806762E-01,0.7280297577E-01,0.1548764296E-01
1071,0.8590930700E-01,0.4104941152E-02,0.1279125363E-01
1072,0.8664511889E-01,0.8353136480E-02,0.1194073539E-01
1073,0.4101490229E-01,0.1873230562E-01,0.1524242293E-01
1074,0.7509813178E-02,0.2428203635E-01,0.4077401012E-02
1075,0.3394739330E-01,0.5572718754E-01,0.1632401533E-01
1076,0.2076027729E-01,0.5945781991E-01,0.8691737428E-02
1077,0.2217445895E-01,0.6309669465E-01,0.1099609211E-01
1078,0.2798669413E-01,0.6663220376E-01,0.6574427243E-02
1079,0.7204179652E-02,0.1765118726E-01,0.3380406182E-02
1080,0.1260929089E-01,0.3354867548E-01,0.4148995038E-02
1081,0.4950305913E-02,0.2609477751E-01,0.1410063915E-01
1082,0.7530871779E-02,0.3047676757E-01,0.1629317179E-01
1083,0.2053290047E-01,0.3904719651E-01,0.1556074154E-01
1084,0.1909156330E-01,0.3728787648E-02,0.1400378067E-01
1085,0.1641327515E-01,0.6060145795E-02,0.1267169975E-01
1086,0.5513366312E-01,0.1979321614E-01,0.3829052905E-02
1087,0.5849501863E-01,0.3598111914E-02,0.4041093402E-02
1088,0.5898233876E-01,0.3688572440E-02,0.8935333230E-02
1089,0.2785833180E-01,0.6676898897E-01,0.1384811476E-01
1090,0.2707198635E-01,0.6824596226E-01,0.1673139632E-01
1091,0.2373912744E-01,0.6894750148E-01,0.1549805887E-01
1092,0.4721338302E-01,0.1632918790E-01,0.6565415300E-02
1093,0.3387023881E-01,0.5040224269E-01,0.1568952762E-01
1094,0.3835184872E-01,0.5139597505E-01,0.3592809895E-02
1095,0.4113947228E-01,0.5389682576E-01,0.1326011959E-01
1096,0.2526951209E-01,0.6366889924E-01,0.1600519940E-01
1097,0.2255606838E-01,0.6492409110E-01,0.1467691362E-01
1098,0.2288624831E-01,0.5996184424E-01,0.1669337228E-01
1099,0.6292557716E-01,0.7353662979E-02,0.1324024983E-01
1100,0.6628894806E-01,0.5724096205E-02,0.1553666871E-01
1101,0.6248163059E-01,0.3562338883E-02,0.1633709669E-01
1102,0.1721087471E-01,0.4367196001E-02,0.8153180592E-02
1103,0.1386772934E-01,0.6390057504E-02,0.8444854990E-02
1104,0.1930388995E-01,0.7093787193E-02,0.9974746965E-02
1105,0.1942130178E-01,0.8229416795E-02,0.1354394574E-01
1106,0.3010074375E-02,0.2691918053E-01,0.9265429340E-02
1107,0.4040833097E-02,0.2175432630E-01,0.1215897873E-01
1108,0.3761631902E-02,0.2213204838E-01,0.8039622568E-02
1109,0.3508269321E-02,0.2535976283E-01,0.3652885091E-02
1110,0.5581437051E-01,0.1914414018E-01,0.1643139496E-01
1111,0.5515544862E-01,0.1215821877E-01,0.1602499746E-01
1112,0.5757070333E-01,0.1142631844E-01,0.1578462683E-01
1113,0.5736482888E-01,0.1258530561E-01,0.6526251789E-02
1114,0.1039721537E-01,0.8301737718E-02,0.1021263283E-01
1115,0.1683628373E-01,0.7800021768E-01,0.1125471946E-01
1116,0.2842965350E-01,0.1576820202E-01,0.1657412574E-01
1117,0.6602675468E-01,0.5088160746E-02,0.8041099645E-02
1118,0.7028914243E-01,0.3398876172E-02,0.7381297648E-02
1119,0.6923427433E-01,0.6843012758E-02,0.9904959239E-02
1120,0.6285921484E-01,0.3676778870E-02,0.4871408921E-02
1121,0.1615506597E-01,0.5635403842E-01,0.1689331979E-01
1122,0.3627811372E-01,0.5876800045E-01,0.1375551522E-01
1123,0.6403806806E-01,0.2227680758E-01,0.1481359079E-01
1124,0.7033020258E-01,0.2282890864E-01,0.1455665193E-01
1125,0.2181998640E-01,0.1809361018E-01,0.1714478806E-01
1126,0.1621790789E-01,0.6374991965E-02,0.5423557479E-02
1127,0.5732404813E-01,0.3412558511E-01,0.1678301021E-01
1128,0.6459151395E-02,0.1739942841E-01,0.1523753721E-01
1129,0.9335091338E-02,0.2138195001E-01,0.1624321193E-01
1130,0.6082951277E-01,0.2245194465E-01,0.1656991802E-01
1131,0.6342184544E-01,0.2291004732E-01,0.1075304020E-01
1132,0.1298414171E-01,0.7221161574E-01,0.8466077037E-02
1133,0.1837655716E-01,0.7359384000E-01,0.1087229513E-01
1134,0.3034110414E-02,0.1716478355E-01,0.1109389123E-01
1135,0.6307922304E-02,0.1211688947E-01,0.1369286329E-01
1136,0.2215862088E-01,0.7156392187E-01,0.1269781962E-01
1137,0.5428394675E-01,0.8764936589E-02,0.1644707657E-01
1138,0.5482052639E-01,0.2343934961E-01,0.3391064471E-02
1139,0.7362903096E-02,0.1904875226E-01,0.9769356810E-02
1140,0.7311492693E-02,0.6798305362E-01,0.6712759845E-02
1141,0.2628111281E-01,0.6848230958E-01,0.1085848641E-01
1142,0.2608473971E-01,0.2333879471E-01,0.1626852341E-01
1143,0.6281808764E-01,0.3623871831E-02,0.1226067543E-01
1144,0.6746155769E-01,0.5713422783E-02,0.1266224217E-01
1145,0.1756504923E-01,0.5801790580E-01,0.6603999529E-02
1146,0.5899265409E-02,0.7008508593E-01,0.1006671041E-01
1147,0.2102230303E-01,0.1011304744E-01,0.1211244985E-01
1148,0.5631751567E-01,0.3673566505E-02,0.1339962147E-01
1149,0.9371156804E-02,0.7114541531E-01,0.7348491810E-02
1150,0.4095894843E-01,0.5403951183E-01,0.5957983434E-02
1151,0.2135030925E-01,0.6791134924E-01,0.1767246798E-01
1152,0.6072927639E-01,0.7886479609E-02,0.1676987298E-01
1153,0.6041689217E-01,0.8312677965E-02,0.9766095318E-02
1154,0.3084836155E-01,0.4660634696E-01,0.4836812150E-02
1155,0.1184570137E-01,0.7248181850E-01,0.4441204481E-02
1156,0.3652746323E-02,0.7012130320E-01,0.5520450417E-02
1157,0.1025238261E-01,0.7154639065E-01,0.3225284861E-02
1158,0.2879237011E-01,0.6596542150E-01,0.2888625022E-02
1159,0.3490119055E-01,0.2564920858E-01,0.1495788991E-01
*ELEMENT,TYPE=DC3D4,ELSET=PART1_EG1
1,667,668,669,670
2,667,668,670,671
3,670,672,671,673
4,76,370,672,674
5,370,670,672,674
6,369,667,380,670
7,369,667,670,674
8,168,675,676,677
9,130,168,676,677
10,130,676,168,678
11,676,679,677,680
12,676,677,681,682
13,441,679,677,681
14,589,683,684,685
15,100,677,130,682
16,99,130,100,677
17,145,686,166,687
18,133,687,166,688
19,145,686,687,689
20,678,687,682,690
21,167,682,678,687
22,133,682,687,688
23,673,692,691,693
24,673,692,693,694
25,673,692,694,695
26,668,670,671,673
27,668,673,671,696
28,673,691,692,697
29,698,699,700,701
30,676,679,702,703
31,701,705,704,706
32,676,702,679,707
33,168,676,675,678
34,676,679,680,707
35,668,709,708,710
36,668,673,696,697
37,667,671,670,674
38,361,672,670,691
39,667,668,671,710
40,668,691,673,697
41,429,485,643,711
42,377,670,669,691
43,359,712,713,714
44,388,714,715,716
45,712,714,717,718
46,228,719,261,720
47,714,716,717,721
48,714,718,715,721
49,722,723,724,725
50,108,725,134,726
51,134,159,722,725
52,723,727,725,728
53,723,728,725,729
54,108,725,438,728
55,69,730,94,731
56,412,554,562,732
57,56,731,730,733
58,38,306,39,731
59,69,730,734,735
60,69,731,307,734
61,38,67,360,733
62,730,736,733,737
63,733,738,737,739
64,730,733,731,738
65,38,731,56,733
66,56,95,733,736
67,67,733,95,737
68,740,741,742,743
69,189,250,190,744
70,706,745,746,747
71,745,748,747,749
72,740,747,750,751
73,684,743,740,747
74,684,743,747,748
75,142,168,752,753
76,752,754,753,755
77,311,753,351,754
78,689,752,753,755
79,117,689,144,753
80,116,117,144,753
81,147,728,484,756
82,39,307,69,731
83,160,728,723,729
84,150,728,160,729
85,311,351,338,754
86,108,150,725,728
87,563,757,564,758
88,107,108,438,728
89,438,727,484,728
90,174,235,175,759
91,175,235,465,759
92,9,338,294,597
93,229,720,261,760
94,234,724,759,761
95,173,174,437,759
96,437,759,465,762
97,472,763,596,764
98,421,596,616,764
99,21,435,490,765
100,421,595,463,764
101,742,750,747,766
102,706,747,746,767
103,585,706,745,746
104,585,706,586,745
105,588,607,745,749
106,768,769,770,771
107,769,771,772,773
108,768,769,771,772
109,771,774,772,775
110,776,777,778,779
111,779,781,780,782
112,776,783,779,784
113,776,783,784,785
114,778,779,786,787
115,779,780,788,789
116,776,779,778,787
117,698,790,701,791
118,701,790,704,791
119,222,276,275,783
120,701,704,790,792
121,697,698,699,700
122,699,793,790,794
123,699,700,701,793
124,320,328,795,796
125,510,780,786,797
126,769,799,798,800
127,801,802,803,804
128,768,770,769,804
129,769,804,798,805
130,717,807,806,808
131,710,809,810,811
132,710,811,812,813
133,809,810,811,814
134,810,811,814,815
135,219,795,278,816
136,810,812,811,817
137,810,811,815,817
138,690,703,752,818
139,188,247,189,478
140,702,703,743,752
141,679,685,702,703
142,338,597,339,749
143,819,820,821,822
144,819,822,821,823
145,716,721,824,825
146,824,827,826,828
147,824,829,830,831
148,824,828,829,831
149,824,827,828,831
150,758,832,833,834
151,563,758,564,834
152,543,563,834,835
153,542,834,836,837
154,542,837,836,838
155,543,835,834,837
156,839,840,841,842
157,326,839,406,842
158,829,831,842,843
159,406,839,841,842
160,781,823,844,845
161,781,823,845,846
162,823,845,846,847
163,819,848,823,849
164,189,478,247,850
165,778,797,780,823
166,821,823,822,851
167,778,819,797,823
168,714,717,718,721
169,721,852,787,853
170,721,853,787,854
171,718,787,721,855
172,721,825,806,856
173,717,718,721,806
174,427,483,451,857
175,218,858,270,859
176,859,861,860,862
177,150,160,159,729
178,859,861,863,864
179,270,859,858,863
180,858,859,862,863
181,777,823,781,846
182,778,787,853,854
183,777,778,781,823
184,777,778,823,851
185,778,780,779,781
186,779,781,782,865
187,776,784,779,787
188,776,787,778,854
189,715,721,718,787
190,387,714,388,716
191,713,715,718,785
192,712,718,717,866
193,718,785,784,867
194,751,767,840,868
195,750,751,840,869
196,706,840,839,870
197,750,840,766,871
198,839,841,840,872
199,831,840,841,872
200,831,842,840,871
201,667,710,809,873
202,671,710,874,875
203,671,674,710,875
204,674,809,710,875
205,671,874,710,876
206,709,710,810,877
207,710,812,810,877
208,709,810,710,878
209,671,710,708,876
210,667,709,668,710
211,73,874,813,875
212,90,875,879,880
213,244,470,836,881
214,717,825,882,883
215,717,883,882,884
216,717,806,721,825
217,717,883,884,885
218,717,807,808,885
219,717,806,825,886
220,717,825,883,886
221,669,709,887,888
222,889,890,891,892
223,887,892,893,894
224,669,887,709,895
225,887,896,894,897
226,448,510,518,844
227,887,893,891,897
228,887,894,893,897
229,643,651,664,898
230,860,899,900,901
231,7,301,631,901
232,301,355,342,901
233,355,899,860,901
234,650,900,901,902
235,900,901,902,903
236,688,904,905,906
237,627,634,633,907
238,906,909,908,910
239,131,688,906,911
240,146,165,906,910
241,131,906,165,911
242,146,166,686,906
243,730,737,912,913
244,912,915,914,916
245,912,913,917,918
246,765,917,913,918
247,737,912,913,917
248,431,435,913,918
249,55,737,736,913
250,435,765,913,918
251,602,704,790,791
252,698,919,791,920
253,698,791,701,920
254,698,699,701,790
255,472,921,763,922
256,64,921,472,922
257,921,924,923,925
258,472,763,921,926
259,763,924,921,926
260,481,924,921,925
261,912,927,915,928
262,302,915,927,928
263,360,368,738,739
264,302,306,738,927
265,734,929,930,931
266,40,734,931,932
267,354,734,930,931
268,307,734,354,931
269,40,734,307,931
270,671,673,672,933
271,87,671,672,933
272,710,810,873,878
273,710,813,812,876
274,671,876,696,933
275,668,696,708,709
276,705,839,706,872
277,684,767,751,934
278,767,934,792,935
279,704,767,746,936
280,706,745,747,937
281,684,746,747,767
282,767,840,868,872
283,706,747,840,937
284,909,938,910,939
285,939,941,940,942
286,939,940,941,943
287,909,910,911,939
288,939,941,942,944
289,939,941,945,946
290,939,941,944,945
291,909,939,911,947
292,845,948,949,950
293,845,846,847,951
294,777,778,779,781
295,781,846,845,950
296,355,901,860,903
297,7,899,355,901
298,330,705,590,920
299,645,653,661,952
300,630,650,649,900
301,327,899,953,954
302,279,327,899,955
303,899,953,954,956
304,858,899,954,956
305,189,190,434,744
306,719,720,744,765
307,189,247,744,850
308,260,719,744,917
309,228,250,260,744
310,712,718,867,957
311,719,737,765,917
312,247,744,850,917
313,950,959,958,960
314,949,959,950,960
315,657,948,960,961
316,283,348,548,915
317,734,929,931,932
318,932,962,963,964
319,92,932,962,965
320,770,883,966,967
321,770,883,802,966
322,770,883,968,969
323,802,885,883,969
324,808,883,885,969
325,719,760,720,970
326,742,905,971,972
327,678,689,687,690
328,686,687,689,690
329,906,909,910,911
330,904,909,906,911
331,688,905,904,973
332,54,257,213,974
333,905,908,906,909
334,741,971,905,973
335,213,257,254,974
336,286,332,552,975
337,257,760,261,974
338,809,975,814,976
339,809,975,976,977
340,332,963,552,975
341,552,575,975,978
342,319,975,873,977
343,318,975,319,977
344,627,979,980,981
345,268,981,980,982
346,628,953,956,981
347,236,979,981,982
348,719,737,760,970
349,953,954,956,981
350,236,979,269,981
351,269,979,954,981
352,269,858,954,979
353,212,360,254,739
354,154,903,983,984
355,722,723,861,862
356,861,903,862,983
357,416,487,417,559
358,723,861,862,983
359,305,860,313,861
360,154,861,305,985
361,809,810,814,873
362,667,671,674,710
363,814,976,975,978
364,667,809,674,977
365,809,976,880,977
366,958,982,980,986
367,238,982,816,987
368,979,980,981,982
369,268,980,816,982
370,236,982,238,986
371,102,136,103,498
372,723,729,861,983
373,859,861,862,863
374,723,862,724,988
375,858,988,862,989
376,860,900,862,903
377,668,696,709,888
378,696,709,888,990
379,820,849,821,991
380,820,993,992,994
381,819,820,992,994
382,819,821,820,849
383,686,905,690,995
384,681,703,690,741
385,16,410,467,996
386,681,741,690,973
387,703,743,752,818
388,690,742,818,995
389,690,752,755,818
390,997,998,999,1000
391,439,1000,812,1001
392,381,382,394,882
393,439,500,812,813
394,635,661,663,1002
395,811,999,815,1001
396,449,479,487,1003
397,809,811,813,879
398,809,811,879,1004
399,724,762,988,1005
400,270,858,724,863
401,722,724,723,862
402,723,862,988,1006
403,724,759,761,762
404,722,725,724,761
405,724,725,727,761
406,750,828,871,1007
407,828,853,1008,1009
408,828,992,1007,1010
409,826,992,828,1011
410,822,828,992,1007
411,442,1012,450,1013
412,450,1012,945,1013
413,941,945,946,1014
414,504,904,688,911
415,450,947,945,1015
416,939,947,945,1013
417,941,944,945,1016
418,883,892,967,968
419,770,802,969,1017
420,771,1018,968,1019
421,771,1018,775,1020
422,771,1003,800,1021
423,768,770,804,966
424,513,969,1017,1021
425,496,801,1017,1022
426,450,947,498,1013
427,496,1017,801,1021
428,440,496,801,1021
429,801,1017,804,1021
430,801,802,804,1017
431,802,969,1017,1022
432,13,465,648,1023
433,762,1023,1005,1024
434,762,1024,1005,1025
435,465,648,1023,1024
436,647,1005,988,1023
437,477,762,1023,1026
438,742,750,1007,1027
439,639,656,663,1028
440,742,1027,971,1029
441,742,972,1027,1030
442,740,750,742,1029
443,59,1000,998,1031
444,25,70,59,998
445,997,999,998,1032
446,997,998,1000,1031
447,24,25,460,998
448,24,998,460,1032
449,722,761,724,863
450,160,729,723,983
451,723,988,898,1006
452,722,724,862,863
453,139,1033,1034,1035
454,722,862,861,863
455,337,1033,592,1036
456,723,724,725,727
457,698,1038,1037,1039
458,698,1040,919,1041
459,419,594,611,794
460,701,767,792,872
461,487,1020,559,1042
462,699,701,790,793
463,700,1037,1038,1043
464,698,700,1037,1038
465,698,790,1040,1041
466,700,896,888,1044
467,888,894,896,1045
468,449,487,453,1046
469,697,888,700,1045
470,696,888,697,1045
471,718,788,787,855
472,784,789,867,1047
473,715,784,776,787
474,715,718,784,787
475,872,935,896,1048
476,34,139,157,1035
477,747,766,840,937
478,831,840,868,869
479,706,840,767,872
480,706,839,840,872
481,778,779,780,786
482,778,787,786,853
483,714,717,716,884
484,716,824,853,1008
485,786,787,852,853
486,779,786,787,788
487,718,867,784,1049
488,778,853,851,854
489,721,787,852,855
490,716,853,721,854
491,824,830,890,891
492,824,830,825,890
493,721,852,824,856
494,715,721,787,854
495,64,922,83,923
496,824,890,886,1050
497,717,883,808,886
498,825,830,882,890
499,716,717,721,825
500,35,61,157,925
501,941,946,943,1014
502,909,938,939,946
503,845,946,1015,1028
504,849,991,946,1002
505,939,946,945,947
506,831,868,872,1051
507,831,841,842,843
508,830,831,843,891
509,824,830,829,1008
510,824,831,830,891
511,411,541,564,833
512,17,564,560,1052
513,831,869,868,1051
514,158,726,1053,1054
515,109,110,172,726
516,462,594,794,1055
517,232,233,726,1053
518,233,761,726,1053
519,722,725,761,1053
520,722,723,725,729
521,233,492,726,761
522,108,134,109,726
523,108,109,492,726
524,63,463,1056,1057
525,32,764,63,922
526,541,732,562,838
527,83,922,1057,1058
528,763,922,923,1058
529,64,921,922,923
530,126,156,155,1059
531,541,834,833,836
532,781,846,950,1060
533,781,1061,1060,1062
534,777,781,865,1062
535,777,846,781,1061
536,777,1061,781,1062
537,781,1063,844,1064
538,338,754,1065,1066
539,45,77,76,672
540,294,338,1065,1066
541,294,614,597,1066
542,758,832,834,835
543,338,1066,749,1067
544,338,749,339,1067
545,588,597,614,749
546,916,1068,1069,1070
547,811,814,815,1004
548,709,810,774,1018
549,774,810,775,1018
550,674,809,880,977
551,9,339,338,597
552,710,811,810,812
553,811,815,817,1001
554,708,710,709,877
555,722,864,985,1071
556,313,861,864,985
557,271,864,863,1072
558,216,217,271,864
559,217,859,863,864
560,784,867,785,1047
561,776,778,851,854
562,786,819,822,826
563,822,1007,1027,1073
564,786,826,822,853
565,778,786,822,853
566,819,822,826,992
567,824,828,826,853
568,701,704,705,920
569,700,701,872,1043
570,699,790,1041,1074
571,692,695,699,1041
572,841,896,872,1043
573,879,976,1004,1031
574,697,1037,700,1044
575,701,767,704,792
576,700,1043,896,1044
577,802,804,966,1075
578,757,758,800,1052
579,769,800,1076,1077
580,771,1020,1003,1046
581,769,770,771,800
582,800,801,1052,1078
583,769,771,773,1076
584,771,1003,1021,1046
585,776,777,779,865
586,783,784,785,1047
587,436,463,462,1079
588,223,785,783,865
589,361,670,377,691
590,777,781,779,865
591,779,783,782,784
592,673,692,695,1080
593,692,698,697,1037
594,692,698,1037,1081
595,673,696,695,933
596,466,832,468,833
597,673,696,697,1080
598,692,1081,1037,1082
599,692,699,695,1080
600,691,692,697,1037
601,708,877,709,990
602,700,935,793,1045
603,700,1038,701,1043
604,97,128,98,473
605,17,466,411,833
606,433,950,959,987
607,844,845,949,950
608,781,845,844,950
609,841,887,891,896
610,888,990,894,1045
611,532,897,894,1045
612,841,843,891,1083
613,887,888,896,1083
614,894,897,896,1045
615,896,1048,897,1051
616,531,893,532,897
617,709,877,810,1018
618,129,1036,1084,1085
619,697,1045,700,1080
620,891,897,893,1051
621,887,892,891,893
622,700,896,935,1045
623,888,1044,896,1083
624,841,896,891,1051
625,639,948,961,1028
626,426,457,483,961
627,457,949,483,961
628,948,949,961,1086
629,442,1012,1013,1087
630,442,476,1012,1087
631,104,105,476,1087
632,138,1013,944,1087
633,141,1087,944,1088
634,141,944,163,1088
635,156,1059,1054,1071
636,864,1059,1071,1072
637,155,985,363,1059
638,126,194,127,1059
639,155,1059,156,1071
640,194,195,216,1059
641,194,363,195,1059
642,155,985,1059,1071
643,251,1089,317,1090
644,251,252,1089,1090
645,344,346,1090,1091
646,209,1090,346,1091
647,208,346,209,1090
648,2,35,96,925
649,40,58,932,964
650,40,331,41,964
651,58,72,962,964
652,42,962,72,964
653,331,963,332,964
654,42,332,962,964
655,820,849,991,1092
656,904,972,909,993
657,820,909,993,1092
658,908,938,909,972
659,904,971,905,972
660,911,947,939,1013
661,825,883,886,890
662,882,884,883,1093
663,770,883,967,968
664,807,885,866,1094
665,802,885,969,1022
666,885,969,1022,1094
667,802,885,1022,1095
668,892,1018,895,1019
669,890,891,893,1050
670,882,890,889,967
671,387,397,394,716
672,883,884,885,1093
673,129,170,139,1036
674,139,1033,337,1036
675,293,1036,605,1065
676,618,1036,1033,1085
677,114,337,352,1036
678,293,352,337,1036
679,769,1096,799,1097
680,769,773,772,1098
681,769,1097,773,1098
682,341,1099,1100,1101
683,730,737,738,912
684,737,913,765,917
685,730,736,737,913
686,115,1036,352,1084
687,128,169,680,1102
688,292,592,337,619
689,170,1033,1085,1103
690,170,1085,1102,1103
691,169,170,1085,1102
692,129,169,170,1085
693,128,170,1102,1103
694,1085,1102,1103,1104
695,740,743,742,747
696,742,908,972,1030
697,747,749,766,937
698,706,840,870,937
699,743,747,749,766
700,750,751,869,1010
701,754,1084,1065,1105
702,352,1036,1065,1084
703,605,614,1065,1105
704,293,294,352,1065
705,661,662,663,952
706,605,1065,1036,1085
707,692,1081,693,1106
708,79,85,1081,1107
709,1040,1107,1041,1108
710,85,1106,1107,1108
711,919,1041,1040,1107
712,698,1041,919,1081
713,740,747,742,750
714,742,972,971,1027
715,904,993,909,1092
716,909,946,939,947
717,972,1027,1030,1073
718,30,71,75,1109
719,904,905,909,972
720,971,972,993,1027
721,313,861,860,864
722,357,1110,635,1111
723,305,860,861,903
724,155,159,985,1071
725,154,729,861,985
726,159,722,985,1071
727,938,943,939,946
728,939,944,942,1013
729,945,1012,1014,1016
730,941,1016,1014,1112
731,945,947,946,1015
732,945,1014,1012,1113
733,19,191,192,229
734,19,191,229,720
735,82,720,760,970
736,66,490,720,970
737,66,720,82,970
738,19,82,20,720
739,465,477,762,1023
740,651,1023,988,1026
741,651,988,898,1026
742,430,651,643,1026
743,430,643,756,1026
744,430,477,644,1026
745,727,756,898,1026
746,473,926,481,1103
747,137,1034,170,1103
748,429,485,430,643
749,763,923,921,924
750,763,923,924,1114
751,924,1034,1103,1114
752,170,1034,1033,1103
753,69,730,731,734
754,67,733,737,974
755,912,917,928,1115
756,738,912,917,928
757,730,737,733,738
758,67,360,733,974
759,307,734,731,927
760,306,731,738,927
761,94,736,730,913
762,56,730,94,736
763,306,307,731,927
764,818,995,1030,1116
765,391,908,995,1030
766,314,362,755,995
767,314,995,818,1116
768,675,1084,752,1105
769,142,168,675,752
770,311,753,754,755
771,689,690,752,755
772,142,753,752,1084
773,144,752,168,753
774,168,678,675,752
775,643,898,756,1026
776,654,711,756,1117
777,654,756,664,1117
778,143,147,756,1118
779,756,1118,898,1119
780,711,756,1117,1120
781,485,756,711,1120
782,557,775,772,1121
783,770,968,771,1021
784,428,655,640,1012
785,770,802,804,966
786,771,775,773,1076
787,580,773,775,1076
788,829,830,831,843
789,831,841,840,842
790,830,889,882,890
791,889,892,895,967
792,824,891,890,1050
793,830,889,890,891
794,824,827,831,1050
795,890,891,892,893
796,824,831,891,1050
797,819,823,821,849
798,845,1002,946,1028
799,946,1002,1014,1028
800,819,849,820,994
801,909,991,946,1092
802,883,966,967,1093
803,770,804,1017,1021
804,770,969,968,1021
805,801,802,1022,1122
806,134,726,725,1053
807,438,727,725,761
808,724,761,727,762
809,727,988,762,1026
810,233,234,761,1053
811,234,724,761,863
812,820,1027,972,1073
813,514,994,520,1092
814,848,849,994,1092
815,456,848,819,994
816,820,993,994,1092
817,742,818,995,1030
818,690,742,741,818
819,740,1010,750,1029
820,778,786,819,822
821,992,1010,993,1027
822,820,822,992,1027
823,822,1009,1007,1073
824,328,795,796,1123
825,219,796,795,816
826,219,796,816,1124
827,328,796,632,1123
828,221,320,795,796
829,219,221,795,796
830,198,329,199,796
831,198,329,796,1124
832,1041,1074,1108,1109
833,1041,1074,1055,1108
834,697,700,699,1080
835,790,1055,1041,1074
836,692,697,698,699
837,436,1074,446,1109
838,29,71,30,1109
839,85,1106,1108,1109
840,553,575,582,814
841,436,1056,1074,1109
842,75,85,1108,1109
843,75,1108,1056,1109
844,367,1075,803,1122
845,802,1075,1093,1095
846,273,803,801,1122
847,225,803,273,1122
848,758,833,832,1052
849,17,411,564,833
850,470,541,833,836
851,468,470,833,836
852,832,833,834,836
853,18,541,411,833
854,541,542,834,836
855,585,745,607,748
856,701,792,793,872
857,586,706,705,870
858,586,745,706,870
859,603,704,705,706
860,585,704,603,706
861,705,706,839,870
862,339,937,749,1125
863,280,339,588,1125
864,745,749,937,1125
865,745,937,870,1125
866,345,870,937,1125
867,339,345,937,1125
868,280,587,345,1125
869,219,221,278,795
870,769,1077,773,1097
871,566,773,1077,1097
872,568,773,1076,1077
873,771,772,774,1019
874,557,772,773,1098
875,857,1015,1028,1086
876,451,1015,857,1086
877,451,848,1015,1086
878,426,427,639,857
879,426,483,857,961
880,451,857,483,1086
881,451,483,456,1086
882,427,857,475,1113
883,296,328,632,1123
884,321,805,768,1098
885,769,800,798,804
886,375,768,805,1075
887,367,375,805,1075
888,207,317,251,805
889,207,803,367,805
890,803,805,804,1075
891,422,472,481,926
892,473,598,926,1103
893,473,598,1103,1126
894,422,481,473,926
895,636,660,665,1112
896,137,924,481,925
897,33,472,64,921
898,472,596,763,926
899,615,763,924,1114
900,615,924,763,926
901,222,783,275,1047
902,776,777,865,1127
903,784,867,789,1049
904,493,494,789,1047
905,779,782,783,865
906,276,783,782,865
907,493,789,782,1047
908,222,782,276,783
909,919,1107,1128,1129
910,303,1039,334,1129
911,296,328,1123,1130
912,290,601,291,1128
913,79,1107,303,1128
914,113,336,337,1035
915,336,1033,337,1035
916,3,113,34,1035
917,3,34,50,1035
918,61,1034,923,1035
919,61,157,1034,1035
920,139,1034,157,1035
921,519,1010,540,1011
922,536,992,540,1010
923,740,751,750,1010
924,633,662,653,1131
925,519,869,1010,1011
926,536,993,1010,1029
927,993,1027,1010,1029
928,828,1010,869,1011
929,278,816,795,1060
930,595,1057,617,1079
931,617,1057,1055,1079
932,436,1056,1055,1074
933,420,1055,462,1079
934,436,1055,462,1074
935,61,64,923,925
936,33,921,64,925
937,33,445,921,925
938,61,157,925,1034
939,846,1123,952,1131
940,96,137,481,925
941,2,96,445,925
942,694,695,1041,1109
943,256,928,917,1115
944,881,1115,1132,1133
945,262,1115,881,1133
946,916,928,1068,1115
947,816,907,958,980
948,626,958,634,980
949,958,986,959,987
950,634,958,907,980
951,634,958,960,1131
952,616,623,621,1058
953,83,1058,1057,1134
954,62,86,71,694
955,83,923,1058,1135
956,764,1057,922,1058
957,63,83,922,1057
958,923,1114,1058,1135
959,381,882,394,889
960,407,830,843,889
961,830,843,889,891
962,381,882,889,967
963,405,895,889,1083
964,375,966,768,1075
965,798,800,801,804
966,798,801,803,804
967,798,804,803,805
968,769,800,771,1076
969,757,800,1003,1052
970,322,772,768,1019
971,769,805,798,1096
972,252,835,1091,1136
973,544,1091,835,1136
974,549,1133,1070,1136
975,252,263,835,1136
976,253,1070,1068,1133
977,61,64,83,923
978,312,943,357,1111
979,298,357,635,1111
980,298,340,357,1111
981,1002,1111,1014,1112
982,943,1014,1002,1111
983,63,83,64,922
984,635,1002,660,1112
985,941,1112,1111,1137
986,596,763,616,764
987,781,782,865,1063
988,823,848,845,849
989,846,948,950,1131
990,780,782,781,1064
991,846,950,1060,1131
992,781,1060,950,1063
993,556,999,997,1032
994,415,460,486,999
995,59,879,1000,1031
996,602,611,610,790
997,683,740,684,743
998,743,754,752,818
999,683,741,740,743
1000,684,747,740,751
1001,447,740,683,741
1002,690,741,905,973
1003,742,995,908,1030
1004,516,971,741,973
1005,1056,1108,1074,1109
1006,447,741,516,1029
1007,1102,1103,1104,1126
1008,169,1102,1085,1104
1009,616,1057,764,1058
1010,170,1033,1036,1085
1011,129,1084,169,1085
1012,809,873,814,975
1013,42,332,318,962
1014,962,963,975,978
1015,286,814,333,975
1016,575,978,581,1004
1017,809,976,814,1004
1018,845,951,847,1110
1019,433,505,950,1063
1020,797,844,823,1138
1021,456,797,848,1138
1022,483,1086,949,1138
1023,510,780,797,844
1024,456,1086,483,1138
1025,510,797,518,844
1026,815,1001,999,1042
1027,486,558,999,1042
1028,534,751,740,1010
1029,452,740,534,751
1030,742,766,743,818
1031,743,749,1067,1116
1032,447,469,683,740
1033,469,684,683,740
1034,1058,1134,1128,1139
1035,1055,1056,1057,1139
1036,1055,1057,1056,1079
1037,63,84,83,1134
1038,63,1056,84,1134
1039,63,764,463,1057
1040,472,763,764,922
1041,628,630,953,955
1042,630,953,899,956
1043,628,629,955,1124
1044,627,628,956,981
1045,463,1056,1057,1079
1046,816,958,907,1131
1047,816,907,980,1124
1048,979,980,982,1024
1049,238,268,816,982
1050,980,986,982,1024
1051,236,981,268,982
1052,692,697,699,1080
1053,919,1081,1041,1107
1054,698,699,790,1041
1055,698,919,920,1038
1056,1037,1081,1039,1082
1057,698,919,1038,1039
1058,310,1038,1037,1043
1059,310,691,1037,1082
1060,310,1037,1038,1039
1061,626,1005,648,1024
1062,409,464,625,1024
1063,626,980,979,1024
1064,253,837,263,1136
1065,253,262,837,1133
1066,262,881,837,1133
1067,837,881,838,1133
1068,832,834,835,837
1069,263,832,835,837
1070,70,1031,998,1032
1071,24,70,998,1032
1072,556,997,572,1032
1073,459,1032,572,1140
1074,24,460,459,1032
1075,1033,1034,1035,1114
1076,923,1035,1034,1114
1077,619,623,1114,1135
1078,619,1114,1033,1135
1079,291,335,1128,1135
1080,798,1078,799,1141
1081,565,799,835,1097
1082,586,587,588,745
1083,798,1089,799,1096
1084,769,799,1077,1097
1085,49,50,81,336
1086,491,695,696,933
1087,309,839,326,870
1088,28,499,65,933
1089,499,876,874,933
1090,671,874,876,933
1091,87,874,671,933
1092,73,88,874,875
1093,28,62,491,933
1094,839,840,842,1142
1095,663,1002,845,1028
1096,845,849,1002,1110
1097,639,961,857,1028
1098,1014,1015,1028,1113
1099,948,961,1028,1086
1100,253,1133,837,1136
1101,317,321,350,805
1102,263,836,832,837
1103,252,1091,253,1136
1104,799,835,1091,1141
1105,544,835,1091,1097
1106,252,835,263,1141
1107,32,64,472,922
1108,63,922,764,1057
1109,32,463,63,764
1110,763,922,921,923
1111,2,33,35,925
1112,596,615,763,926
1113,152,161,1143,1144
1114,1117,1118,1119,1144
1115,902,1119,983,1144
1116,152,1100,984,1144
1117,290,600,612,1129
1118,558,815,571,999
1119,811,997,1000,1031
1120,811,1004,997,1031
1121,815,817,1001,1042
1122,439,817,455,1001
1123,432,999,998,1000
1124,811,817,812,1001
1125,432,1000,439,1001
1126,564,758,833,834
1127,264,832,1078,1141
1128,541,564,833,834
1129,832,836,834,837
1130,263,832,264,1141
1131,758,832,835,1141
1132,242,263,244,836
1133,242,832,263,836
1134,722,1071,1053,1072
1135,722,864,1071,1072
1136,216,1059,864,1072
1137,363,985,864,1059
1138,864,1059,985,1071
1139,216,272,1059,1072
1140,217,863,271,864
1141,810,812,817,877
1142,539,894,877,990
1143,79,84,85,1107
1144,526,817,877,1018
1145,526,877,539,1018
1146,709,887,888,894
1147,709,774,810,878
1148,709,894,877,1018
1149,743,818,766,1116
1150,291,601,620,1128
1151,742,747,743,766
1152,745,749,747,937
1153,766,840,937,1142
1154,315,871,766,1142
1155,766,871,840,1142
1156,929,963,932,965
1157,929,931,932,963
1158,40,69,734,932
1159,58,962,932,964
1160,332,963,962,964
1161,285,331,551,963
1162,743,747,748,749
1163,587,745,870,1125
1164,701,706,767,872
1165,701,706,704,767
1166,326,870,839,1142
1167,586,705,587,870
1168,330,587,705,870
1169,562,838,732,1132
1170,550,838,1132,1133
1171,543,837,1133,1136
1172,543,837,838,1133
1173,30,75,436,1109
1174,775,810,815,817
1175,416,486,487,1042
1176,439,812,817,1001
1177,814,976,978,1004
1178,455,817,1020,1042
1179,811,997,815,999
1180,571,997,815,1004
1181,817,1020,1042,1145
1182,558,815,999,1042
1183,571,815,582,1004
1184,462,1055,794,1074
1185,89,737,95,970
1186,55,95,737,970
1187,261,720,719,760
1188,55,737,765,970
1189,20,82,66,720
1190,719,720,765,970
1191,997,998,1031,1032
1192,72,91,92,962
1193,91,92,962,1031
1194,92,965,962,1031
1195,965,997,1031,1032
1196,91,962,976,1031
1197,976,978,1004,1031
1198,29,491,62,694
1199,647,649,652,989
1200,59,91,879,1031
1201,576,929,579,965
1202,92,93,932,965
1203,735,914,930,1146
1204,577,578,929,930
1205,734,735,930,1146
1206,962,965,963,978
1207,929,965,932,1146
1208,324,392,847,991
1209,823,845,847,849
1210,778,786,780,797
1211,389,777,846,847
1212,392,847,821,851
1213,289,330,587,590
1214,98,140,99,482
1215,504,508,688,973
1216,686,687,690,905
1217,687,690,905,973
1218,508,682,688,973
1219,133,682,167,687
1220,195,313,859,864
1221,706,870,745,937
1222,588,749,745,1125
1223,339,1067,749,1116
1224,284,577,551,931
1225,480,792,934,935
1226,480,934,936,996
1227,388,716,715,854
1228,384,388,715,854
1229,384,776,385,854
1230,715,784,718,785
1231,400,1008,854,1009
1232,385,400,396,854
1233,622,1085,1104,1105
1234,115,129,1036,1084
1235,351,754,753,1084
1236,743,752,754,1147
1237,675,676,702,752
1238,752,753,754,1084
1239,1084,1104,1085,1105
1240,169,1085,1084,1104
1241,683,703,741,743
1242,675,1105,752,1147
1243,169,1084,675,1104
1244,405,407,843,889
1245,397,830,716,1008
1246,403,829,830,1008
1247,401,830,829,843
1248,401,403,829,830
1249,391,1030,995,1116
1250,285,552,332,963
1251,703,741,743,818
1252,576,963,929,965
1253,509,780,510,1064
1254,509,788,780,789
1255,781,782,1063,1064
1256,776,783,785,865
1257,779,782,780,789
1258,776,778,777,851
1259,517,708,812,876
1260,27,874,499,876
1261,27,500,874,876
1262,499,696,517,876
1263,285,332,331,963
1264,499,696,876,933
1265,626,646,958,986
1266,816,1060,958,1131
1267,278,987,816,1060
1268,238,986,982,987
1269,268,816,980,1124
1270,238,816,278,987
1271,653,1123,952,1130
1272,296,1123,653,1130
1273,846,1123,1061,1130
1274,328,1061,1123,1130
1275,109,134,135,726
1276,610,611,617,1055
1277,358,951,952,1110
1278,694,1041,1106,1109
1279,323,951,846,1130
1280,979,1005,1024,1025
1281,648,1005,1023,1024
1282,626,979,1005,1024
1283,626,979,647,1005
1284,858,989,956,1005
1285,112,135,132,232
1286,647,979,956,1005
1287,175,1024,465,1025
1288,110,135,232,726
1289,465,1024,762,1025
1290,465,1023,762,1024
1291,175,465,235,1025
1292,858,988,989,1005
1293,235,858,269,1025
1294,390,391,399,1030
1295,236,269,979,1025
1296,724,1005,858,1025
1297,235,762,724,1025
1298,686,906,908,910
1299,362,908,686,995
1300,686,690,689,755
1301,682,687,688,973
1302,118,145,362,686
1303,145,687,167,689
1304,372,686,908,910
1305,118,146,145,686
1306,387,716,394,882
1307,643,664,756,898
1308,824,825,886,890
1309,824,856,827,1050
1310,824,886,856,1050
1311,397,403,830,1008
1312,829,842,831,871
1313,394,716,830,882
1314,716,853,854,1008
1315,396,716,854,1008
1316,315,399,391,1030
1317,304,942,940,1148
1318,374,938,940,942
1319,940,942,941,1148
1320,164,942,944,1013
1321,712,713,714,957
1322,41,332,42,964
1323,715,787,776,854
1324,365,715,713,785
1325,365,388,713,715
1326,384,715,776,854
1327,640,1012,655,1113
1328,475,1015,1012,1113
1329,427,640,656,1113
1330,857,1028,1015,1113
1331,534,536,540,1010
1332,820,993,972,1027
1333,516,741,681,973
1334,905,908,909,972
1335,516,904,971,973
1336,904,971,993,1029
1337,911,939,942,1013
1338,944,945,1012,1013
1339,944,1013,1012,1087
1340,498,947,911,1013
1341,103,498,136,1013
1342,138,164,944,1013
1343,444,507,695,699
1344,527,793,1045,1080
1345,691,692,1037,1082
1346,206,367,225,1122
1347,321,375,768,805
1348,371,375,1075,1093
1349,535,827,826,852
1350,232,272,233,1053
1351,802,1095,1022,1122
1352,417,487,479,1003
1353,560,757,567,1003
1354,567,1003,757,1076
1355,757,1076,800,1077
1356,769,798,799,1096
1357,449,1003,487,1046
1358,449,1021,1003,1046
1359,55,765,737,913
1360,730,912,914,1149
1361,55,736,94,913
1362,94,730,735,913
1363,56,733,730,736
1364,376,389,385,851
1365,22,68,431,913
1366,55,95,736,737
1367,95,733,736,737
1368,447,679,681,683
1369,474,679,683,685
1370,441,447,679,681
1371,469,589,684,996
1372,16,583,410,996
1373,584,746,589,996
1374,684,746,934,996
1375,16,480,583,996
1376,584,936,746,996
1377,885,1022,1095,1150
1378,497,1022,1094,1150
1379,438,725,492,761
1380,495,497,1094,1150
1381,866,885,1095,1150
1382,266,866,1095,1150
1383,495,1094,866,1150
1384,230,866,266,1150
1385,958,982,986,987
1386,795,816,907,1131
1387,433,950,987,1063
1388,396,400,403,1008
1389,433,959,458,987
1390,458,959,986,987
1391,950,1060,987,1063
1392,419,462,420,594
1393,220,987,278,1060
1394,1065,1084,1085,1105
1395,675,1104,1105,1147
1396,622,1104,702,1147
1397,605,1065,1085,1105
1398,605,618,622,1085
1399,293,352,1036,1065
1400,618,622,1085,1103
1401,680,1102,1104,1126
1402,675,1104,1084,1105
1403,752,1105,754,1147
1404,675,752,702,1147
1405,607,748,749,1147
1406,607,749,614,1147
1407,609,622,702,1147
1408,614,1105,622,1147
1409,505,844,950,1063
1410,103,136,138,1013
1411,493,505,782,1064
1412,518,844,797,1138
1413,510,780,844,1064
1414,493,789,509,1064
1415,780,789,782,1064
1416,509,789,780,1064
1417,27,499,500,876
1418,708,710,812,876
1419,74,674,88,875
1420,671,708,696,876
1421,27,65,499,874
1422,73,813,90,875
1423,664,1006,902,1119
1424,902,1006,983,1119
1425,342,902,903,984
1426,650,664,652,1006
1427,650,902,664,1006
1428,839,870,840,1142
1429,102,131,136,911
1430,315,937,345,1142
1431,315,766,937,1142
1432,615,624,619,1114
1433,326,839,842,1142
1434,799,1091,1089,1141
1435,26,73,500,813
1436,11,344,1097,1151
1437,254,739,360,974
1438,350,1097,1096,1098
1439,769,1096,1097,1098
1440,799,1096,1091,1097
1441,799,1091,835,1097
1442,344,1091,1097,1151
1443,205,371,248,1095
1444,544,565,835,1097
1445,207,367,317,805
1446,206,225,248,1122
1447,768,966,804,1075
1448,798,805,1089,1096
1449,149,942,304,1148
1450,304,1137,353,1148
1451,151,1143,1088,1148
1452,353,1148,1137,1152
1453,163,1088,944,1148
1454,944,1088,1016,1148
1455,940,941,1137,1148
1456,151,1088,163,1148
1457,200,320,364,1062
1458,320,1061,364,1062
1459,221,277,1060,1062
1460,221,277,278,1060
1461,777,1062,865,1127
1462,364,1062,1061,1127
1463,277,1062,865,1063
1464,795,1060,1061,1062
1465,314,755,818,995
1466,314,755,754,818
1467,362,383,908,995
1468,117,362,689,755
1469,117,311,362,755
1470,117,753,311,755
1471,1099,1100,1143,1144
1472,983,1119,1118,1144
1473,146,148,165,910
1474,658,1100,1099,1144
1475,666,1117,1099,1153
1476,641,902,1100,1144
1477,664,1117,756,1119
1478,539,894,892,1018
1479,667,669,668,709
1480,692,694,1041,1106
1481,506,695,507,1080
1482,673,697,692,1080
1483,668,708,671,710
1484,752,754,755,818
1485,687,688,905,906
1486,904,905,971,973
1487,131,688,166,906
1488,504,904,516,973
1489,375,382,381,1093
1490,101,131,504,688
1491,101,508,133,688
1492,218,269,858,954
1493,858,1005,979,1025
1494,563,758,799,1077
1495,234,270,724,863
1496,522,807,806,1049
1497,489,807,522,1049
1498,489,495,807,866
1499,511,513,528,968
1500,718,806,807,1049
1501,303,1128,1107,1129
1502,723,983,862,1006
1503,79,1107,1128,1134
1504,1040,1107,1108,1139
1505,1041,1107,1106,1108
1506,84,1108,1107,1134
1507,303,1081,1039,1129
1508,317,367,321,805
1509,919,1081,1107,1129
1510,303,1107,1081,1129
1511,622,1104,1103,1126
1512,423,599,613,1126
1513,98,473,128,1126
1514,599,622,613,1126
1515,502,512,511,1154
1516,128,1103,1102,1126
1517,98,680,488,1126
1518,327,953,899,955
1519,197,327,343,953
1520,237,954,953,981
1521,858,956,979,1005
1522,862,989,988,1006
1523,313,327,859,860
1524,218,859,327,954
1525,195,313,196,859
1526,1099,1148,1101,1152
1527,1088,1148,1143,1153
1528,1099,1148,1152,1153
1529,659,1152,1112,1153
1530,1099,1143,1117,1144
1531,341,637,1099,1152
1532,637,1099,658,1100
1533,122,341,123,1101
1534,341,1101,353,1152
1535,341,1099,1101,1152
1536,1099,1143,1101,1148
1537,1088,1143,1117,1153
1538,1112,1152,1148,1153
1539,530,827,856,1050
1540,530,827,535,856
1541,502,530,856,886
1542,502,856,806,886
1543,359,713,712,957
1544,713,718,714,957
1545,359,387,712,714
1546,359,713,388,714
1547,713,785,718,957
1548,182,230,495,866
1549,365,384,715,776
1550,180,241,181,494
1551,782,784,783,1047
1552,714,715,716,721
1553,716,825,824,830
1554,1041,1081,1106,1107
1555,919,1039,1081,1129
1556,181,241,243,867
1557,381,405,398,895
1558,1055,1074,1056,1108
1559,32,472,463,764
1560,1040,1108,1055,1139
1561,945,1012,1015,1113
1562,909,946,947,1092
1563,514,904,947,1092
1564,103,138,442,1013
1565,514,947,1015,1092
1566,498,515,904,947
1567,692,693,1081,1082
1568,696,1045,697,1080
1569,671,696,673,933
1570,517,696,525,708
1571,699,700,793,1080
1572,673,695,694,933
1573,444,793,699,794
1574,491,694,695,933
1575,29,491,694,695
1576,497,513,512,969
1577,627,956,979,981
1578,444,695,446,1074
1579,87,88,671,874
1580,521,527,935,1045
1581,521,532,1045,1048
1582,532,897,1045,1048
1583,525,532,990,1045
1584,507,793,527,1080
1585,525,990,696,1045
1586,896,935,1045,1048
1587,19,192,52,229
1588,519,869,751,1010
1589,750,828,1007,1010
1590,828,829,831,871
1591,20,66,21,490
1592,253,255,262,1068
1593,531,535,827,1011
1594,542,562,550,838
1595,824,829,828,1008
1596,535,826,827,1011
1597,470,732,541,836
1598,18,412,541,732
1599,18,541,470,732
1600,732,1132,850,1155
1601,471,732,850,1155
1602,471,554,732,1155
1603,554,562,732,1155
1604,786,787,788,852
1605,787,788,852,855
1606,376,385,776,851
1607,179,222,493,782
1608,251,803,805,1089
1609,811,812,813,1000
1610,385,776,851,854
1611,366,387,382,884
1612,506,525,517,696
1613,93,94,735,1156
1614,68,913,94,1156
1615,57,1140,459,1156
1616,326,406,379,842
1617,553,814,574,1121
1618,561,915,569,930
1619,57,93,1140,1156
1620,431,918,913,1156
1621,459,1156,1140,1157
1622,647,989,988,1005
1623,652,989,900,1006
1624,174,234,235,759
1625,858,956,954,979
1626,858,859,860,862
1627,294,1065,614,1066
1628,234,270,235,724
1629,421,472,422,596
1630,665,1112,1016,1153
1631,655,1016,1012,1153
1632,711,1120,1117,1153
1633,530,533,531,1050
1634,642,711,666,1153
1635,1012,1016,1087,1153
1636,359,388,387,714
1637,297,357,358,1110
1638,329,343,955,1124
1639,954,979,956,981
1640,436,1056,463,1079
1641,8,329,343,955
1642,8,279,629,955
1643,444,462,461,794
1644,396,397,716,1008
1645,628,953,630,956
1646,7,630,279,899
1647,231,265,274,1022
1648,279,899,630,955
1649,327,343,953,955
1650,708,812,710,877
1651,500,517,812,876
1652,432,500,439,813
1653,231,1022,497,1150
1654,548,549,569,916
1655,26,73,27,500
1656,517,708,526,812
1657,845,849,946,1002
1658,526,817,812,877
1659,280,588,587,1125
1660,892,968,1018,1019
1661,322,768,966,1019
1662,892,895,967,1019
1663,373,776,865,1127
1664,216,864,271,1072
1665,196,327,218,859
1666,204,246,245,712
1667,223,275,783,785
1668,275,783,785,1047
1669,138,944,141,1087
1670,203,359,245,957
1671,796,907,816,1124
1672,162,1117,1088,1143
1673,161,1117,162,1143
1674,149,163,944,1148
1675,151,162,1088,1143
1676,141,1088,162,1120
1677,684,747,746,748
1678,587,588,745,1125
1679,410,589,469,996
1680,684,747,751,767
1681,585,704,706,746
1682,746,936,934,996
1683,710,810,809,873
1684,495,512,501,1094
1685,667,873,809,977
1686,809,879,880,976
1687,554,573,1155,1157
1688,66,765,490,970
1689,60,880,879,976
1690,43,60,318,880
1691,60,90,879,880
1692,369,674,880,977
1693,669,709,878,895
1694,668,696,671,708
1695,667,669,709,878
1696,669,691,888,1044
1697,388,714,713,715
1698,211,256,255,928
1699,669,888,887,1083
1700,182,495,489,866
1701,21,55,22,435
1702,850,1132,912,1155
1703,308,361,310,1082
1704,572,965,579,1140
1705,489,866,807,1049
1706,632,907,633,1123
1707,795,907,1123,1131
1708,628,907,632,1124
1709,21,66,55,765
1710,627,907,628,1124
1711,626,627,979,980
1712,268,980,981,1124
1713,627,980,907,1124
1714,590,612,600,920
1715,414,572,459,1032
1716,802,803,804,1075
1717,884,885,1093,1095
1718,366,884,1093,1095
1719,266,866,712,1095
1720,205,248,246,1095
1721,265,274,1022,1095
1722,246,266,712,1095
1723,627,956,647,979
1724,283,561,354,915
1725,302,915,928,1069
1726,86,87,672,694
1727,432,460,998,999
1728,59,879,813,1000
1729,765,850,917,918
1730,59,91,90,879
1731,321,356,350,1098
1732,209,252,1090,1091
1733,302,915,354,927
1734,71,85,75,1109
1735,224,267,785,957
1736,46,361,308,693
1737,571,575,581,1004
1738,715,776,784,785
1739,73,90,88,875
1740,27,500,73,874
1741,209,253,252,1091
1742,824,826,827,852
1743,241,867,494,1047
1744,779,788,784,789
1745,275,785,867,1047
1746,267,867,785,957
1747,417,479,560,1003
1748,449,1003,1021,1052
1749,487,1003,1020,1046
1750,528,1018,968,1046
1751,453,487,1020,1046
1752,574,582,775,814
1753,770,771,800,1021
1754,774,810,873,1121
1755,180,493,222,1047
1756,325,772,774,1121
1757,286,553,287,1121
1758,628,630,649,956
1759,287,557,356,1121
1760,943,1002,991,1110
1761,647,648,1005,1023
1762,938,943,946,991
1763,1007,1030,1027,1073
1764,849,1015,946,1092
1765,943,946,991,1002
1766,323,1061,328,1130
1767,323,376,364,1061
1768,595,621,617,1057
1769,323,777,376,1061
1770,221,1060,795,1062
1771,200,364,240,1062
1772,89,760,737,970
1773,489,495,501,807
1774,795,1061,846,1123
1775,322,768,375,966
1776,449,968,513,1021
1777,511,513,968,1154
1778,311,314,362,755
1779,50,81,336,1035
1780,742,908,905,972
1781,528,539,892,1018
1782,883,968,969,1154
1783,449,968,1021,1046
1784,775,1076,1020,1145
1785,453,1020,1018,1046
1786,425,959,457,960
1787,948,960,950,1131
1788,425,646,959,960
1789,505,844,1063,1064
1790,177,458,238,987
1791,425,458,457,959
1792,626,958,980,986
1793,301,650,631,901
1794,514,538,520,994
1795,950,960,958,1131
1796,440,449,1021,1052
1797,798,801,800,1078
1798,440,1052,801,1158
1799,249,801,1078,1158
1800,769,805,1096,1098
1801,273,1022,274,1122
1802,185,440,496,801
1803,858,900,956,989
1804,1058,1128,1134,1135
1805,802,1075,1095,1122
1806,239,782,505,1063
1807,802,966,883,1093
1808,717,866,807,885
1809,249,273,798,801
1810,185,496,227,801
1811,293,618,605,1036
1812,78,693,308,1081
1813,361,672,691,693
1814,691,693,692,1082
1815,184,227,185,496
1816,180,241,494,1047
1817,186,466,242,468
1818,86,672,693,694
1819,78,86,693,1106
1820,42,72,962,976
1821,205,206,248,371
1822,646,958,959,960
1823,692,693,694,1106
1824,359,365,388,713
1825,365,785,713,957
1826,415,486,416,558
1827,800,1021,1003,1052
1828,308,1081,693,1082
1829,310,361,691,1082
1830,1016,1112,1148,1153
1831,233,271,234,1053
1832,531,533,893,1050
1833,46,308,78,693
1834,310,1037,1039,1082
1835,308,1039,1081,1082
1836,57,93,965,1140
1837,70,92,1031,1032
1838,572,997,965,1032
1839,327,860,899,954
1840,93,932,965,1146
1841,179,239,222,782
1842,343,953,955,1124
1843,909,938,946,991
1844,154,159,160,729
1845,493,494,509,789
1846,312,374,938,940
1847,762,988,1005,1023
1848,241,267,243,867
1849,795,816,796,907
1850,570,580,815,1145
1851,107,150,108,728
1852,304,940,1137,1148
1853,155,158,159,1071
1854,950,958,1060,1131
1855,296,297,358,645
1856,374,910,938,942
1857,376,777,776,1127
1858,373,776,785,865
1859,217,270,271,863
1860,201,373,865,1127
1861,437,438,492,761
1862,364,1061,376,1127
1863,223,373,785,865
1864,234,271,270,863
1865,201,364,373,1127
1866,198,343,329,1124
1867,201,223,240,865
1868,816,987,958,1060
1869,89,737,760,974
1870,628,953,981,1124
1871,213,254,360,974
1872,37,213,360,974
1873,437,727,438,761
1874,550,573,578,1132
1875,733,739,737,974
1876,37,360,67,974
1877,54,89,760,974
1878,315,766,399,1030
1879,586,587,745,870
1880,607,748,745,749
1881,344,346,1091,1151
1882,585,746,745,748
1883,745,746,747,748
1884,546,566,565,1097
1885,743,1067,749,1147
1886,770,1017,969,1021
1887,683,684,685,743
1888,366,884,382,1093
1889,375,966,1075,1093
1890,440,466,479,1052
1891,256,260,259,917
1892,543,1133,549,1136
1893,274,1022,1095,1122
1894,821,823,847,849
1895,866,1094,885,1150
1896,93,1146,1140,1156
1897,735,1149,1146,1156
1898,577,930,929,931
1899,233,272,271,1053
1900,174,175,465,759
1901,551,577,929,931
1902,93,965,1140,1146
1903,69,734,93,735
1904,93,735,734,1146
1905,732,838,836,881
1906,573,1149,1155,1157
1907,234,724,235,759
1908,471,1155,918,1157
1909,126,155,363,1059
1910,649,650,652,900
1911,304,340,353,1137
1912,918,1155,1149,1157
1913,562,573,1132,1155
1914,7,327,355,899
1915,279,343,327,955
1916,260,739,719,917
1917,360,738,733,739
1918,196,197,218,327
1919,630,899,953,955
1920,360,739,733,974
1921,254,719,260,739
1922,123,124,153,984
1923,7,279,327,899
1924,212,368,360,739
1925,212,256,368,739
1926,1016,1148,1088,1153
1927,941,1016,1112,1148
1928,152,1143,1100,1144
1929,944,1012,945,1016
1930,519,540,535,1011
1931,945,946,1014,1015
1932,316,378,390,938
1933,359,387,366,712
1934,227,273,801,1022
1935,174,465,437,759
1936,820,991,909,1092
1937,442,450,498,1013
1938,628,955,953,1124
1939,634,657,662,948
1940,497,513,969,1017
1941,941,945,1014,1016
1942,184,496,497,1022
1943,497,1022,969,1094
1944,231,265,1022,1150
1945,184,227,496,1022
1946,766,818,1030,1116
1947,567,1076,580,1145
1948,775,1020,817,1145
1949,775,1018,817,1020
1950,769,770,800,804
1951,606,607,609,748
1952,559,570,1042,1145
1953,710,809,811,813
1954,605,1036,618,1085
1955,453,1018,528,1046
1956,474,488,482,707
1957,312,357,340,1111
1958,771,1003,1020,1076
1959,570,815,1042,1145
1960,815,817,1042,1145
1961,559,1042,1020,1145
1962,891,893,1050,1051
1963,453,455,817,1020
1964,775,810,814,815
1965,810,814,873,1121
1966,616,621,1057,1058
1967,334,1039,1038,1129
1968,84,85,1107,1108
1969,392,1009,821,1073
1970,505,1063,782,1064
1971,290,291,335,1128
1972,208,209,252,1090
1973,440,449,496,1021
1974,552,975,963,978
1975,321,375,322,768
1976,287,288,356,557
1977,288,350,356,1098
1978,602,790,704,936
1979,583,936,584,996
1980,585,602,704,936
1981,704,706,746,767
1982,589,606,684,746
1983,718,788,855,1049
1984,445,481,921,925
1985,137,925,157,1034
1986,623,1058,763,1114
1987,83,923,922,1058
1988,616,764,763,1058
1989,61,925,923,1034
1990,81,923,83,1135
1991,81,1035,923,1135
1992,846,951,952,1130
1993,781,950,844,1063
1994,389,847,846,951
1995,950,958,987,1060
1996,845,1086,848,1138
1997,795,1123,846,1131
1998,264,798,1089,1141
1999,252,1089,1091,1141
2000,46,47,78,308
2001,114,139,337,1036
2002,758,1078,832,1141
2003,242,264,832,1078
2004,252,264,1089,1141
2005,931,932,963,964
2006,730,914,927,930
2007,559,1003,567,1020
2008,734,930,929,1146
2009,308,310,334,1039
2010,912,914,915,927
2011,29,30,446,1109
2012,309,395,406,1043
2013,601,612,621,1128
2014,569,915,914,930
2015,578,579,929,1146
2016,551,931,929,963
2017,569,578,914,916
2018,578,930,914,1146
2019,701,705,872,1043
2020,600,920,919,1038
2021,845,847,849,1110
2022,289,920,600,1038
2023,600,612,919,920
2024,289,330,920,1038
2025,828,1008,829,1159
2026,603,919,612,920
2027,330,705,920,1038
2028,448,844,949,950
2029,780,781,844,1064
2030,628,633,632,907
2031,448,483,949,1138
2032,367,371,1075,1122
2033,230,495,866,1150
2034,822,851,853,1009
2035,365,373,776,785
2036,775,810,817,1018
2037,781,865,1062,1063
2038,845,846,948,950
2039,277,1060,1062,1063
2040,184,231,227,1022
2041,239,277,782,1063
2042,276,782,277,865
2043,392,399,400,1009
2044,747,751,767,840
2045,700,888,896,1045
2046,701,1038,705,1043
2047,602,790,610,791
2048,610,919,791,1040
2049,322,381,398,895
2050,227,231,274,1022
2051,287,356,333,1121
2052,59,813,432,1000
2053,603,704,791,920
2054,593,792,790,936
2055,418,792,593,936
2056,704,790,792,936
2057,1089,1090,1091,1096
2058,381,382,882,1093
2059,59,432,998,1000
2060,916,1068,1070,1133
2061,208,344,346,1090
2062,413,471,431,1157
2063,253,1091,1070,1136
2064,544,546,1097,1151
2065,543,835,837,1136
2066,186,466,440,1158
2067,399,1009,1007,1159
2068,399,766,871,1007
2069,695,699,1041,1074
2070,309,705,330,1038
2071,310,1037,691,1044
2072,452,684,751,934
2073,309,1038,310,1043
2074,821,847,823,851
2075,314,339,315,1116
2076,847,991,849,1110
2077,324,951,358,1110
2078,358,952,951,1130
2079,781,846,1060,1061
2080,323,389,846,951
2081,422,473,423,598
2082,320,795,328,1061
2083,482,488,680,707
2084,795,1060,846,1061
2085,240,1062,364,1127
2086,858,862,900,989
2087,320,795,1061,1062
2088,199,221,219,796
2089,173,234,759,761
2090,221,278,795,1060
2091,344,1091,1090,1096
2092,544,1097,1091,1151
2093,175,235,236,1025
2094,263,835,832,1141
2095,301,641,650,902
2096,563,758,834,835
2097,758,799,800,1078
2098,798,799,1089,1141
2099,758,799,1078,1141
2100,798,805,803,1089
2101,438,725,727,728
2102,117,362,145,689
2103,251,264,798,1089
2104,798,800,799,1078
2105,54,760,257,974
2106,450,945,947,1013
2107,388,396,397,716
2108,358,645,952,1130
2109,454,480,934,935
2110,795,846,1060,1131
2111,845,1028,1015,1086
2112,443,792,480,935
2113,664,898,1006,1119
2114,454,934,868,935
2115,218,269,270,858
2116,527,793,935,1045
2117,443,527,793,935
2118,105,141,143,1120
2119,346,1070,1091,1151
2120,177,433,458,987
2121,563,565,799,835
2122,545,548,1069,1070
2123,347,545,1069,1070
2124,106,485,143,756
2125,319,380,369,667
2126,390,399,392,1073
2127,210,1069,1068,1070
2128,346,347,1070,1151
2129,347,545,1070,1151
2130,210,347,1069,1070
2131,670,672,673,691
2132,369,670,370,674
2133,668,670,673,691
2134,696,708,709,990
2135,377,691,669,1044
2136,386,669,667,878
2137,380,667,386,669
2138,310,361,377,691
2139,65,88,87,874
2140,121,149,304,1148
2141,940,941,943,1137
2142,325,333,356,1121
2143,312,940,943,1137
2144,432,999,1000,1001
2145,941,942,944,1148
2146,675,676,680,707
2147,138,163,141,944
2148,316,390,392,1073
2149,299,1112,636,1152
2150,390,938,908,1073
2151,130,167,133,682
2152,340,353,1137,1152
2153,1112,1137,1148,1152
2154,943,1002,1110,1111
2155,115,352,351,1084
2156,121,304,353,1148
2157,523,1010,740,1029
2158,312,316,357,943
2159,297,661,635,1110
2160,314,315,391,1116
2161,823,845,848,1138
2162,820,991,821,1073
2163,392,821,991,1073
2164,743,754,818,1067
2165,104,141,105,1087
2166,15,469,410,589
2167,312,940,938,943
2168,676,678,682,690
2169,362,686,755,995
2170,750,871,766,1007
2171,742,750,1027,1029
2172,26,432,59,813
2173,27,73,65,874
2174,356,772,557,1098
2175,404,405,408,843
2176,377,380,393,669
2177,491,696,499,933
2178,520,993,536,1029
2179,603,791,919,920
2180,520,904,993,1029
2181,190,191,490,720
2182,584,602,585,936
2183,406,841,839,1043
2184,491,507,506,695
2185,447,681,516,741
2186,447,523,740,1029
2187,883,892,890,967
2188,656,665,660,1014
2189,410,469,467,996
2190,314,391,383,995
2191,502,808,512,1154
2192,512,969,513,1154
2193,378,908,390,938
2194,882,883,890,967
2195,502,533,886,1154
2196,819,820,822,992
2197,516,520,523,1029
2198,533,886,892,893
2199,511,892,533,1154
2200,244,836,263,837
2201,850,912,918,1155
2202,58,72,92,962
2203,263,837,835,1136
2204,541,836,732,838
2205,544,1091,1070,1151
2206,253,1068,262,1133
2207,404,408,406,843
2208,282,347,545,1069
2209,244,836,837,881
2210,580,775,815,1145
2211,572,581,576,965
2212,409,625,648,1024
2213,544,548,545,1070
2214,1,52,19,192
2215,55,94,68,913
2216,23,68,57,1156
2217,578,579,1146,1149
2218,415,486,558,999
2219,578,914,1132,1149
2220,912,1132,1149,1155
2221,578,929,930,1146
2222,572,576,579,965
2223,440,479,449,1052
2224,544,549,548,1070
2225,1140,1146,1149,1156
2226,412,471,413,554
2227,188,244,247,881
2228,1140,1156,1149,1157
2229,579,1140,1146,1149
2230,68,94,93,1156
2231,302,306,368,738
2232,190,228,720,744
2233,735,914,1146,1149
2234,413,573,554,1157
2235,668,669,670,691
2236,310,691,377,1044
2237,57,92,70,1032
2238,434,490,435,765
2239,187,244,470,836
2240,455,1001,817,1042
2241,556,571,581,997
2242,413,459,414,555
2243,361,370,670,672
2244,460,998,999,1032
2245,978,997,1004,1031
2246,556,581,572,997
2247,491,695,506,696
2248,377,669,393,1044
2249,709,774,878,895
2250,419,593,461,794
2251,615,623,763,1114
2252,62,87,86,694
2253,668,691,697,888
2254,698,701,700,1038
2255,393,395,1044,1083
2256,441,474,482,679
2257,13,644,477,1023
2258,308,310,1039,1082
2259,444,507,446,695
2260,33,64,35,925
2261,896,1044,1043,1083
2262,477,484,727,1026
2263,617,1057,621,1139
2264,290,334,600,1129
2265,158,1053,722,1071
2266,594,611,794,1055
2267,615,924,1103,1114
2268,272,1053,1054,1072
2269,418,593,583,936
2270,620,621,1058,1128
2271,156,1054,158,1071
2272,443,521,527,935
2273,156,215,1054,1059
2274,350,547,1097,1098
2275,10,345,280,587
2276,620,621,623,1058
2277,303,308,334,1039
2278,574,814,775,1121
2279,763,1058,923,1114
2280,10,330,345,587
2281,324,392,389,847
2282,290,612,601,1129
2283,13,430,477,644
2284,321,772,356,1098
2285,605,622,614,1105
2286,251,805,317,1089
2287,293,605,294,1065
2288,321,350,805,1098
2289,424,608,599,707
2290,599,608,622,707
2291,424,488,474,707
2292,252,1091,835,1141
2293,832,1078,1052,1158
2294,24,459,57,1032
2295,460,999,556,1032
2296,757,800,758,1077
2297,242,249,1078,1158
2298,678,689,690,752
2299,414,460,556,1032
2300,185,440,801,1158
2301,449,479,1003,1052
2302,923,1035,1114,1135
2303,754,1105,1066,1147
2304,702,752,743,1147
2305,198,199,219,796
2306,702,743,748,1147
2307,754,1066,1067,1147
2308,723,724,727,988
2309,175,464,465,1024
2310,177,220,433,987
2311,339,749,937,1116
2312,437,761,759,762
2313,762,988,1023,1026
2314,627,649,647,956
2315,153,154,160,983
2316,749,1067,1066,1147
2317,35,157,137,925
2318,634,646,657,960
2319,649,956,900,989
2320,35,64,61,925
2321,105,143,106,485
2322,344,1096,350,1097
2323,625,986,626,1024
2324,197,237,218,954
2325,149,163,164,944
2326,448,456,483,1138
2327,11,281,344,1151
2328,544,546,565,1097
2329,329,955,629,1124
2330,662,948,663,952
2331,639,663,948,1028
2332,253,346,1070,1091
2333,635,661,1002,1110
2334,428,476,642,1012
2335,12,346,281,1151
2336,253,346,347,1070
2337,12,347,346,1151
2338,816,980,958,982
2339,448,483,457,949
2340,918,1149,1156,1157
2341,236,979,982,1024
2342,296,358,328,1130
2343,730,913,912,1149
2344,123,341,342,1100
2345,431,1156,459,1157
2346,433,505,448,950
2347,448,518,456,1138
2348,657,663,662,948
2349,431,471,918,1157
2350,413,431,459,1157
2351,426,857,639,961
2352,414,555,459,572
2353,189,434,478,850
2354,744,765,850,917
2355,732,838,881,1132
2356,850,912,917,918
2357,434,435,471,850
2358,489,494,867,1049
2359,4,36,51,214
2360,181,489,494,867
2361,489,867,866,1049
2362,191,228,229,720
2363,36,54,51,257
2364,67,737,89,974
2365,243,266,866,867
2366,267,275,785,867
2367,71,694,1106,1109
2368,692,699,698,1041
2369,1040,1041,1055,1108
2370,56,95,67,733
2371,57,93,92,965
2372,551,929,576,963
2373,522,529,788,855
2374,26,500,432,813
2375,59,90,73,813
2376,529,786,788,852
2377,522,855,788,1049
2378,717,718,807,866
2379,87,671,88,674
2380,784,789,788,1049
2381,314,818,754,1067
2382,426,639,657,961
2383,447,740,741,1029
2384,679,683,685,703
2385,59,70,91,1031
2386,91,976,879,1031
2387,747,750,751,840
2388,609,702,685,748
2389,142,351,753,1084
2390,589,604,683,685
2391,474,683,604,685
2392,482,677,679,680
2393,130,676,678,682
2394,450,451,514,1015
2395,635,663,660,1002
2396,447,523,452,740
2397,485,643,711,756
2398,469,589,683,684
2399,452,684,469,740
2400,297,645,661,1110
2401,309,839,705,1043
2402,309,406,839,1043
2403,700,896,872,935
2404,640,655,665,1113
2405,831,840,869,871
2406,426,638,457,961
2407,706,747,767,840
2408,475,857,1015,1113
2409,164,911,910,942
2410,845,952,951,1110
2411,326,842,379,1142
2412,413,459,555,1157
2413,21,55,435,765
2414,309,705,839,870
2415,345,937,870,1142
2416,122,123,152,1101
2417,154,861,729,983
2418,585,704,746,936
2419,424,474,608,707
2420,147,161,160,1118
2421,11,547,546,1097
2422,207,251,803,805
2423,216,271,272,1072
2424,271,863,1053,1072
2425,134,158,726,1053
2426,100,681,677,682
2427,250,259,260,917
2428,208,251,317,1090
2429,11,344,350,1097
2430,614,749,1066,1147
2431,338,754,351,1065
2432,17,479,466,1052
2433,228,260,719,744
2434,340,1137,1112,1152
2435,299,341,353,1152
2436,1099,1100,1101,1143
2437,635,1110,1002,1111
2438,508,681,682,973
2439,474,482,679,707
2440,676,690,703,752
2441,490,744,720,765
2442,228,260,261,719
2443,21,490,66,765
2444,51,53,52,226
2445,314,1067,339,1116
2446,100,508,441,681
2447,447,474,679,683
2448,190,228,191,720
2449,724,858,862,863
2450,376,1061,777,1127
2451,296,653,645,1130
2452,633,653,1123,1131
2453,296,632,653,1123
2454,676,682,681,690
2455,633,1123,907,1131
2456,329,632,796,1124
2457,316,938,390,1073
2458,215,272,258,1054
2459,150,725,728,729
2460,770,771,968,1019
2461,154,159,729,985
2462,322,325,772,774
2463,325,356,772,1121
2464,195,217,216,864
2465,722,863,864,1072
2466,305,342,355,903
2467,177,238,220,987
2468,518,797,524,819
2469,557,773,566,1098
2470,768,770,966,1019
2471,425,646,458,959
2472,799,1089,1091,1096
2473,237,268,981,1124
2474,816,982,958,987
2475,220,987,1060,1063
2476,757,1003,800,1076
2477,356,557,772,1121
2478,350,1096,805,1098
2479,222,239,276,782
2480,634,948,662,1131
2481,828,829,871,1159
2482,8,295,329,629
2483,387,388,397,716
2484,626,634,627,980
2485,721,824,852,853
2486,887,889,895,1083
2487,827,869,831,1050
2488,750,869,828,1010
2489,457,950,949,959
2490,203,365,359,957
2491,828,831,869,871
2492,550,562,573,1132
2493,379,842,829,871
2494,563,568,757,1077
2495,252,253,263,1136
2496,543,544,835,1136
2497,801,1052,1078,1158
2498,17,560,479,1052
2499,17,833,564,1052
2500,282,283,348,548
2501,41,72,58,964
2502,564,758,757,1052
2503,800,801,1021,1052
2504,282,348,347,1069
2505,329,629,632,1124
2506,568,1076,757,1077
2507,758,800,799,1077
2508,279,630,629,955
2509,476,711,642,1012
2510,904,905,906,909
2511,197,327,953,954
2512,197,218,327,954
2513,197,198,237,343
2514,711,1087,1120,1153
2515,141,1087,1088,1120
2516,138,442,1013,1087
2517,962,978,976,1031
2518,58,92,932,962
2519,282,545,548,1069
2520,552,963,576,978
2521,206,207,225,367
2522,331,931,963,964
2523,962,975,976,978
2524,42,962,318,976
2525,41,42,72,964
2526,72,91,962,976
2527,332,962,963,975
2528,12,545,347,1151
2529,650,900,902,1006
2530,548,549,916,1070
2531,900,903,902,1006
2532,56,94,95,736
2533,317,1090,1089,1096
2534,630,900,649,956
2535,11,1097,546,1151
2536,544,545,546,1151
2537,650,652,900,1006
2538,315,339,345,937
2539,631,900,899,901
2540,195,859,217,864
2541,444,461,793,794
2542,15,474,469,604
2543,525,527,532,1045
2544,196,313,327,859
2545,309,326,330,870
2546,305,355,860,903
2547,235,724,270,858
2548,724,988,858,1005
2549,647,652,988,989
2550,858,899,860,954
2551,326,345,330,870
2552,904,971,972,993
2553,311,338,314,754
2554,313,860,859,864
2555,809,873,975,977
2556,285,286,332,552
2557,860,862,861,903
2558,322,325,356,772
2559,486,999,1001,1042
2560,571,815,997,999
2561,318,332,333,975
2562,439,526,455,817
2563,439,812,526,817
2564,65,73,88,874
2565,77,78,86,693
2566,432,486,999,1001
2567,78,85,86,1106
2568,29,446,491,695
2569,556,571,997,999
2570,160,723,728,1118
2571,290,335,303,1128
2572,615,619,623,1114
2573,723,727,898,988
2574,437,477,727,762
2575,437,727,761,762
2576,78,693,1081,1106
2577,47,78,308,1081
2578,913,918,1149,1156
2579,828,992,1010,1011
2580,519,751,534,1010
2581,531,869,827,1050
2582,531,868,869,1051
2583,402,1008,1009,1159
2584,182,230,183,495
2585,827,828,869,1011
2586,831,872,841,1051
2587,454,868,521,935
2588,495,497,512,1094
2589,701,792,790,793
2590,750,869,840,871
2591,202,224,223,785
2592,443,793,792,935
2593,443,461,792,793
2594,751,767,868,934
2595,354,930,561,931
2596,868,935,872,1048
2597,503,535,529,852
2598,467,684,934,996
2599,418,480,792,936
2600,480,936,583,996
2601,554,573,562,1155
2602,690,905,742,995
2603,394,397,407,830
2604,453,455,526,817
2605,394,407,405,889
2606,881,1115,912,1132
2607,850,881,912,1132
2608,571,581,997,1004
2609,255,928,256,1115
2610,614,1066,1065,1105
2611,550,838,562,1132
2612,621,1128,919,1139
2613,413,554,471,1157
2614,610,621,919,1139
2615,600,919,612,1129
2616,701,791,704,920
2617,919,1128,1107,1139
2618,612,919,1128,1129
2619,590,705,603,920
2620,603,705,704,920
2621,411,466,468,833
2622,603,791,610,919
2623,186,242,466,1158
2624,507,695,699,1080
2625,256,917,259,1115
2626,18,468,470,833
2627,47,308,303,1081
2628,46,78,77,693
2629,417,567,559,1003
2630,63,1057,1056,1134
2631,696,990,888,1045
2632,297,635,357,1110
2633,941,1111,943,1137
2634,603,610,612,919
2635,324,357,991,1110
2636,716,717,825,882
2637,845,948,846,952
2638,821,849,847,991
2639,844,949,845,1138
2640,845,1015,848,1086
2641,354,927,915,930
2642,661,952,1002,1110
2643,452,454,467,934
2644,358,952,645,1110
2645,420,463,595,1079
2646,323,358,951,1130
2647,615,924,926,1103
2648,472,921,481,926
2649,624,1103,1033,1114
2650,619,624,1033,1114
2651,330,587,590,705
2652,116,142,351,753
2653,517,525,526,708
2654,381,394,405,889
2655,180,222,241,1047
2656,382,387,394,882
2657,116,144,142,753
2658,294,597,338,1066
2659,754,1065,1066,1105
2660,439,517,526,812
2661,55,435,765,913
2662,294,605,614,1065
2663,456,848,1086,1138
2664,425,638,646,960
2665,456,797,819,848
2666,324,847,951,1110
2667,777,823,847,851
2668,30,436,446,1109
2669,778,786,797,819
2670,28,65,62,933
2671,768,771,770,1019
2672,306,360,368,738
2673,186,242,187,468
2674,242,468,832,836
2675,38,360,306,733
2676,79,1081,303,1107
2677,185,249,186,1158
2678,264,1078,798,1141
2679,249,798,264,1078
2680,639,857,656,1028
2681,845,948,1028,1086
2682,451,475,857,1015
2683,450,515,498,947
2684,638,657,960,961
2685,845,849,848,1015
2686,849,991,1002,1110
2687,451,456,848,1086
2688,456,518,797,1138
2689,639,948,657,961
2690,948,949,960,961
2691,136,165,164,911
2692,780,823,797,844
2693,148,910,374,942
2694,245,712,267,957
2695,718,807,866,1049
2696,387,712,714,884
2697,17,466,833,1052
2698,655,666,659,1153
2699,779,784,782,789
2700,319,386,667,878
2701,90,875,813,879
2702,668,709,669,888
2703,76,672,87,674
2704,134,722,158,1053
2705,743,749,748,1147
2706,710,813,874,875
2707,656,660,1002,1014
2708,607,614,609,1147
2709,674,809,875,880
2710,839,841,872,1043
2711,531,897,1048,1051
2712,262,1068,1115,1133
2713,244,263,262,837
2714,531,1048,868,1051
2715,531,893,897,1051
2716,521,1045,935,1048
2717,440,466,1052,1158
2718,536,993,992,1010
2719,255,262,1068,1115
2720,520,536,993,994
2721,516,904,520,1029
2722,742,1027,1007,1030
2723,520,994,993,1092
2724,820,994,849,1092
2725,938,991,972,1073
2726,576,965,581,978
2727,432,813,439,1000
2728,820,992,993,1027
2729,849,946,991,1092
2730,144,689,678,752
2731,675,707,680,1104
2732,552,581,575,978
2733,60,91,72,976
2734,675,702,1104,1147
2735,286,575,814,975
2736,140,169,675,680
2737,331,931,551,963
2738,734,929,932,1146
2739,144,678,168,752
2740,201,865,240,1127
2741,178,239,505,1063
2742,281,546,545,1151
2743,220,1060,277,1063
2744,240,865,277,1062
2745,448,949,844,1138
2746,286,333,332,975
2747,493,782,789,1064
2748,722,761,863,1053
2749,579,965,929,1146
2750,232,1053,726,1054
2751,234,863,761,1053
2752,271,1053,272,1072
2753,747,766,750,840
2754,588,614,607,749
2755,235,759,724,762
2756,858,860,859,954
2757,722,1053,863,1072
2758,563,565,568,1077
2759,845,1002,952,1110
2760,521,935,868,1048
2761,392,821,847,991
2762,845,846,951,952
2763,575,814,978,1004
2764,575,814,975,978
2765,318,962,332,975
2766,29,694,71,1109
2767,610,621,612,919
2768,420,463,421,595
2769,48,303,335,1128
2770,444,446,462,1074
2771,60,879,91,976
2772,283,284,354,561
2773,595,616,621,1057
2774,444,794,699,1074
2775,581,978,965,997
2776,419,611,593,794
2777,223,783,276,865
2778,31,436,75,1056
2779,420,617,1055,1079
2780,494,867,789,1047
2781,712,718,866,867
2782,806,856,825,886
2783,535,827,852,856
2784,30,75,31,436
2785,592,624,618,1033
2786,47,48,79,303
2787,33,445,472,921
2788,824,852,827,856
2789,106,147,484,756
2790,139,170,1033,1036
2791,592,1033,618,1036
2792,106,143,147,756
2793,723,983,898,1118
2794,596,615,623,763
2795,563,757,758,1077
2796,423,613,598,1126
2797,664,756,898,1119
2798,422,615,596,926
2799,430,756,484,1026
2800,425,625,458,646
2801,143,1117,161,1118
2802,433,448,457,950
2803,458,959,646,986
2804,638,657,646,960
2805,160,161,983,1118
2806,160,983,723,1118
2807,532,893,533,894
2808,533,892,539,894
2809,425,457,426,638
2810,532,894,539,990
2811,525,532,539,990
2812,511,968,892,1154
2813,394,830,407,889
2814,891,896,897,1051
2815,313,355,327,860
2816,549,578,569,916
2817,664,666,1117,1144
2818,709,894,888,990
2819,132,135,158,1054
2820,781,1062,1060,1063
2821,302,349,348,1069
2822,709,895,894,1018
2823,442,475,450,1012
2824,892,894,895,1018
2825,426,483,427,857
2826,550,578,916,1132
2827,838,881,1132,1133
2828,430,644,651,1026
2829,548,916,1069,1070
2830,569,914,578,930
2831,850,912,881,917
2832,660,1014,665,1112
2833,912,1115,916,1132
2834,447,508,516,681
2835,319,667,369,977
2836,655,1014,665,1113
2837,319,667,873,878
2838,316,357,943,991
2839,709,774,895,1018
2840,774,873,810,878
2841,319,873,325,878
2842,593,611,790,794
2843,560,564,567,757
2844,507,699,793,1080
2845,55,66,95,970
2846,506,527,1045,1080
2847,790,794,1055,1074
2848,704,792,767,936
2849,610,791,790,1040
2850,790,793,792,794
2851,941,1112,1137,1148
2852,777,823,846,847
2853,392,851,821,1009
2854,730,735,914,930
2855,22,55,68,913
2856,36,37,54,213
2857,389,847,392,851
2858,300,641,342,1100
2859,38,39,56,731
2860,1099,1117,1143,1153
2861,341,1099,637,1100
2862,123,342,984,1100
2863,54,67,89,974
2864,658,1099,666,1144
2865,161,1117,1143,1144
2866,902,984,1100,1144
2867,664,1119,902,1144
2868,37,38,67,360
2869,434,744,490,765
2870,965,997,978,1031
2871,435,471,850,918
2872,211,349,302,928
2873,300,637,658,1100
2874,123,984,152,1100
2875,718,785,867,957
2876,180,494,493,1047
2877,254,260,256,739
2878,393,398,404,1083
2879,45,46,77,361
2880,298,1111,635,1112
2881,505,510,844,1064
2882,503,852,529,855
2883,529,852,788,855
2884,509,510,780,786
2885,202,365,224,785
2886,655,659,665,1153
2887,779,780,786,788
2888,241,275,867,1047
2889,686,906,905,908
2890,165,906,910,911
2891,123,153,152,984
2892,372,910,908,938
2893,119,148,146,910
2894,164,165,910,911
2895,345,587,870,1125
2896,119,120,148,374
2897,121,353,151,1148
2898,401,829,842,843
2899,692,1041,698,1081
2900,310,1038,334,1039
2901,151,353,1101,1148
2902,701,705,706,872
2903,767,792,934,936
2904,700,701,793,872
2905,746,767,934,936
2906,602,603,704,791
2907,484,728,727,756
2908,669,1044,888,1083
2909,770,968,967,1019
2910,366,712,884,1095
2911,152,153,161,984
2912,124,305,154,984
2913,204,245,359,712
2914,652,988,989,1006
2915,265,1095,1022,1150
2916,802,883,885,1093
2917,883,886,890,1154
2918,19,229,82,720
2919,204,366,246,712
2920,265,266,1095,1150
2921,266,267,712,867
2922,132,258,232,1054
2923,609,685,702,707
2924,622,707,702,1104
2925,680,1104,707,1126
2926,675,702,676,707
2927,52,53,82,229
2928,51,54,53,257
2929,37,67,54,974
2930,169,675,680,1104
2931,474,685,608,707
2932,464,986,625,1024
2933,858,900,899,956
2934,218,237,269,954
2935,237,269,954,981
2936,212,254,256,739
2937,887,888,894,896
2938,53,82,229,760
2939,38,56,67,733
2940,669,887,895,1083
2941,453,817,526,1018
2942,53,89,82,760
2943,126,127,156,1059
2944,916,1115,1068,1133
2945,544,549,1070,1136
2946,210,349,1068,1069
2947,210,1068,253,1070
2948,158,722,159,1071
2949,349,928,1068,1069
2950,259,917,881,1115
2951,108,492,725,726
2952,259,881,262,1115
2953,166,687,686,906
2954,688,904,906,911
2955,130,678,167,682
2956,100,130,133,682
2957,280,345,339,1125
2958,719,765,744,917
2959,148,164,910,942
2960,944,1012,1016,1087
2961,642,1012,711,1153
2962,1016,1088,1087,1153
2963,665,1014,1016,1112
2964,286,552,575,975
2965,254,719,739,974
2966,719,765,737,970
2967,285,576,552,963
2968,66,82,89,970
2969,769,1076,773,1077
2970,285,551,576,963
2971,82,720,229,760
2972,200,240,221,1062
2973,401,407,830,843
2974,584,606,589,746
2975,824,826,852,853
2976,826,828,827,1011
2977,283,548,569,915
2978,1099,1143,1148,1153
2979,299,659,637,1152
2980,400,402,1008,1009
2981,379,829,402,871
2982,298,660,636,1112
2983,780,781,823,844
2984,396,854,400,1008
2985,122,152,151,1101
2986,1054,1071,1059,1072
2987,297,298,357,635
2988,401,842,406,843
2989,406,841,1043,1083
2990,456,538,514,994
2991,551,579,576,929
2992,504,515,516,904
2993,656,1014,1002,1028
2994,792,793,872,935
2995,498,515,504,904
2996,384,396,388,854
2997,663,845,948,1028
2998,298,340,1111,1112
2999,831,868,840,872
3000,841,872,896,1051
3001,1088,1117,1120,1153
3002,659,1099,1152,1153
3003,637,659,666,1099
3004,292,293,337,592
3005,143,162,1117,1120
3006,364,376,373,1127
3007,222,493,782,1047
3008,476,485,711,1120
3009,939,945,944,1013
3010,476,711,1087,1120
3011,143,756,485,1120
3012,586,588,607,745
3013,116,311,117,753
3014,637,666,658,1099
3015,742,766,818,1030
3016,441,447,474,679
3017,99,441,482,677
3018,520,536,523,1029
3019,633,907,634,1131
3020,711,1012,1087,1153
3021,676,678,690,752
3022,575,582,814,1004
3023,811,812,1000,1001
3024,100,441,677,681
3025,333,873,814,1121
3026,515,520,516,904
3027,523,534,740,1010
3028,399,402,400,1009
3029,820,972,909,991
3030,1053,1071,1054,1072
3031,750,1010,1007,1027
3032,828,1007,1009,1159
3033,399,1007,1009,1073
3034,397,403,407,830
3035,467,469,684,996
3036,297,358,645,1110
3037,399,402,1009,1159
3038,653,952,1123,1131
3039,384,385,396,854
3040,251,798,273,803
3041,309,330,705,870
3042,401,403,402,829
3043,443,527,507,793
3044,417,560,567,1003
3045,379,401,402,829
3046,771,774,775,1018
3047,309,406,326,839
3048,770,800,804,1021
3049,590,603,612,920
3050,771,1018,1020,1046
3051,367,805,803,1075
3052,309,330,334,1038
3053,398,405,404,1083
3054,712,717,884,885
3055,412,471,554,732
3056,227,801,496,1022
3057,585,606,746,748
3058,496,513,1017,1021
3059,513,968,969,1021
3060,912,1132,914,1149
3061,22,68,23,431
3062,97,137,128,473
3063,613,622,1103,1126
3064,423,598,473,1126
3065,336,591,619,1135
3066,595,764,616,1057
3067,615,1103,624,1114
3068,420,617,594,1055
3069,418,461,419,593
3070,461,593,792,794
3071,695,1074,1041,1109
3072,444,507,699,793
3073,698,920,701,1038
3074,254,261,719,974
3075,730,914,912,927
3076,418,461,593,792
3077,887,891,896,897
3078,700,872,896,1043
3079,315,345,326,1142
3080,531,897,532,1048
3081,824,828,853,1008
3082,519,531,869,1011
3083,418,583,480,936
3084,841,887,896,1083
3085,607,609,748,1147
3086,402,829,403,1008
3087,540,1010,992,1011
3088,886,890,893,1050
3089,767,868,934,935
3090,583,593,584,936
3091,750,828,869,871
3092,992,1007,1010,1027
3093,467,934,480,996
3094,452,684,740,751
3095,750,1010,1027,1029
3096,108,492,438,725
3097,173,234,174,759
3098,298,636,299,1112
3099,107,484,147,728
3100,85,1106,1081,1107
3101,601,612,1128,1129
3102,312,943,1111,1137
3103,635,1111,1002,1112
3104,421,616,595,764
3105,436,462,446,1074
3106,910,939,938,942
3107,623,1058,1114,1135
3108,420,595,617,1079
3109,436,462,1055,1079
3110,149,944,942,1148
3111,304,940,312,1137
3112,941,1014,1111,1112
3113,456,819,538,994
3114,148,164,165,910
3115,118,372,146,686
3116,118,362,372,686
3117,372,378,374,938
3118,821,1009,822,1073
3119,514,848,994,1092
3120,514,520,515,904
3121,499,517,500,876
3122,44,74,369,674
3123,414,460,415,556
3124,456,514,848,994
3125,778,822,851,853
3126,365,776,715,785
3127,909,972,938,991
3128,76,87,88,674
3129,521,868,531,1048
3130,318,333,319,975
3131,719,737,739,974
3132,481,921,924,926
3133,502,530,503,856
3134,448,844,518,1138
3135,712,885,884,1095
3136,823,844,845,1138
3137,318,319,369,977
3138,395,404,406,1083
3139,370,380,377,670
3140,511,528,539,892
3141,323,389,777,846
3142,506,507,527,1080
3143,45,76,370,672
3144,379,406,401,842
3145,668,697,696,888
3146,517,696,708,876
3147,65,499,874,933
3148,500,812,813,876
3149,309,310,395,1043
3150,701,920,705,1038
3151,324,847,389,951
3152,45,370,361,672
3153,697,700,888,1044
3154,40,41,58,964
3155,74,369,674,880
3156,43,369,74,880
3157,318,962,975,976
3158,809,879,875,880
3159,555,572,579,1140
3160,318,369,880,977
3161,68,431,913,1156
3162,549,550,578,916
3163,543,549,544,1136
3164,471,554,1155,1157
3165,319,873,667,977
3166,478,850,732,881
3167,557,574,580,775
3168,69,93,94,735
3169,573,579,578,1149
3170,319,333,873,975
3171,962,965,978,1031
3172,18,470,412,732
3173,412,470,478,732
3174,247,881,259,917
3175,566,773,568,1077
3176,542,543,837,838
3177,434,744,765,850
3178,250,260,744,917
3179,255,1068,928,1115
3180,434,765,435,850
3181,277,865,782,1063
3182,328,1061,795,1123
3183,223,276,240,865
3184,422,473,598,926
3185,422,598,615,926
3186,776,779,783,865
3187,376,776,777,851
3188,672,673,691,693
3189,692,1041,1081,1106
3190,700,1045,793,1080
3191,698,791,919,1040
3192,585,586,607,745
3193,586,590,587,705
3194,289,330,590,920
3195,142,675,169,1084
3196,589,606,608,685
3197,611,790,794,1055
3198,691,1037,697,1044
3199,600,1038,919,1129
3200,698,1039,1037,1081
3201,62,87,694,933
3202,61,83,81,923
3203,430,643,485,756
3204,840,870,937,1142
3205,723,756,728,1118
3206,75,1056,436,1109
3207,430,485,484,756
3208,710,874,813,876
3209,387,714,716,884
3210,585,603,586,706
3211,419,461,462,794
3212,309,334,310,1038
3213,584,593,602,936
3214,424,474,604,608
3215,609,614,622,1147
3216,723,898,756,1118
3217,743,754,1067,1147
3218,119,374,148,910
3219,687,905,688,973
3220,145,362,686,689
3221,362,686,689,755
3222,372,908,378,938
3223,315,766,1030,1116
3224,686,908,905,995
3225,516,741,971,1029
3226,939,943,941,946
3227,325,878,774,895
3228,810,877,817,1018
3229,628,629,630,955
3230,237,953,343,1124
3231,198,237,343,1124
3232,887,891,889,1083
3233,393,669,398,1083
3234,322,325,774,895
3235,13,477,465,1023
3236,197,953,237,954
3237,322,381,895,967
3238,405,889,843,1083
3239,381,889,405,895
3240,123,1100,152,1101
3241,904,909,911,947
3242,107,438,484,728
3243,153,160,161,983
3244,644,1023,651,1026
3245,212,213,254,360
3246,584,585,746,936
3247,438,477,484,727
3248,644,648,651,1023
3249,681,683,703,741
3250,643,664,654,756
3251,749,766,937,1116
3252,683,685,703,743
3253,306,733,360,738
3254,606,684,746,748
3255,684,685,743,748
3256,148,149,164,942
3257,430,484,477,1026
3258,908,938,972,1073
3259,152,161,162,1143
3260,312,1111,340,1137
3261,724,762,1005,1025
3262,904,909,947,1092
3263,34,61,81,1035
3264,632,796,907,1123
3265,237,981,953,1124
3266,131,165,136,911
3267,641,664,650,902
3268,147,728,756,1118
3269,141,162,143,1120
3270,643,651,898,1026
3271,425,457,638,960
3272,136,498,911,1013
3273,664,1117,1119,1144
3274,950,958,959,987
3275,634,958,646,960
3276,653,662,952,1131
3277,634,657,948,960
3278,948,949,950,960
3279,651,652,664,898
3280,630,631,650,900
3281,662,948,952,1131
3282,376,777,389,851
3283,131,504,688,911
3284,307,354,331,931
3285,530,531,827,1050
3286,388,396,716,854
3287,531,869,1050,1051
3288,394,882,830,889
3289,549,550,916,1133
3290,93,734,932,1146
3291,551,577,579,929
3292,535,540,826,1011
3293,831,891,1050,1051
3294,751,868,840,869
3295,676,703,702,752
3296,537,538,819,992
3297,820,972,991,1073
3298,656,1002,663,1028
3299,656,1014,1028,1113
3300,718,866,867,1049
3301,43,44,74,369
3302,510,786,524,797
3303,427,475,1012,1113
3304,640,665,656,1113
3305,910,911,939,942
3306,74,88,90,875
3307,42,43,60,318
3308,552,576,581,978
3309,310,1043,1037,1044
3310,60,74,90,880
3311,938,940,939,943
3312,941,1014,943,1111
3313,576,963,965,978
3314,41,331,332,964
3315,140,169,168,675
3316,116,351,311,753
3317,685,702,703,743
3318,450,1012,475,1015
3319,100,508,681,682
3320,451,848,514,1015
3321,450,514,947,1015
3322,647,956,989,1005
3323,622,1105,1104,1147
3324,144,689,752,753
3325,727,898,988,1026
3326,477,727,762,1026
3327,647,956,649,989
3328,5,110,112,171
3329,860,901,900,903
3330,723,898,983,1006
3331,724,762,727,988
3332,13,465,409,648
3333,409,465,464,1024
3334,651,652,898,988
3335,8,629,329,955
3336,586,603,705,706
3337,795,1060,816,1131
3338,309,705,1038,1043
3339,236,269,268,981
3340,320,328,323,1061
3341,199,329,328,796
3342,200,201,240,364
3343,199,328,320,796
3344,767,792,872,935
3345,831,841,891,1051
3346,841,891,887,1083
3347,705,839,872,1043
3348,325,873,774,878
3349,771,968,1018,1046
3350,209,253,346,347
3351,511,528,892,968
3352,557,773,772,775
3353,190,720,490,744
3354,256,739,917,928
3355,768,804,769,805
3356,306,731,733,738
3357,211,212,256,368
3358,247,262,259,881
3359,255,256,259,1115
3360,471,732,478,850
3361,325,774,873,1121
3362,185,186,440,1158
3363,892,967,968,1019
3364,322,895,774,1019
3365,79,84,1107,1134
3366,226,261,257,760
3367,227,273,249,801
3368,621,1058,1128,1139
3369,543,565,563,835
3370,1057,1134,1058,1139
3371,53,226,257,760
3372,186,249,242,1158
3373,252,1089,1090,1091
3374,209,346,253,1091
3375,617,1055,1057,1139
3376,249,801,798,1078
3377,610,1055,617,1139
3378,566,773,1097,1098
3379,546,547,566,1097
3380,501,806,807,808
3381,610,919,1040,1139
3382,317,350,344,1096
3383,525,526,708,990
3384,347,348,349,1069
3385,210,211,255,349
3386,284,561,577,931
3387,500,813,874,876
3388,73,500,813,874
3389,673,695,696,1080
3390,525,708,696,990
3391,65,874,87,933
3392,775,817,815,1145
3393,12,281,545,1151
3394,498,904,911,947
3395,286,575,553,814
3396,514,904,515,947
3397,520,993,904,1092
3398,498,904,504,911
3399,536,992,993,994
3400,514,520,904,1092
3401,938,939,940,942
3402,636,665,659,1112
3403,353,1101,1148,1152
3404,820,909,972,993
3405,173,437,492,761
3406,109,172,492,726
3407,120,149,148,942
3408,304,374,312,940
3409,172,232,233,726
3410,51,53,226,257
3411,127,194,215,1059
3412,121,122,151,353
3413,234,271,863,1053
3414,173,233,234,761
3415,389,777,847,851
3416,110,232,172,726
3417,633,634,662,1131
3418,323,324,389,951
3419,232,272,1053,1054
3420,450,514,515,947
3421,660,1002,1014,1112
3422,659,666,1099,1153
3423,143,1117,756,1120
3424,161,1118,1117,1144
3425,654,666,711,1117
3426,902,983,984,1144
3427,654,664,666,1117
3428,162,1088,1117,1120
3429,945,1015,1014,1113
3430,442,476,475,1012
3431,643,654,711,756
3432,457,960,949,961
3433,522,788,789,1049
3434,105,485,476,1120
3435,666,711,1117,1153
3436,105,1087,141,1120
3437,199,320,221,796
3438,811,1000,879,1031
3439,120,121,149,304
3440,26,59,73,813
3441,59,90,813,879
3442,117,118,145,362
3443,74,674,875,880
3444,504,516,508,973
3445,62,694,491,933
3446,526,812,708,877
3447,667,710,674,809
3448,420,594,462,1055
3449,883,892,968,1154
3450,697,698,700,1037
3451,204,359,366,712
3452,29,446,695,1109
3453,436,1055,1056,1079
3454,610,1040,790,1055
3455,610,1040,1055,1139
3456,245,266,267,712
3457,29,695,694,1109
3458,594,617,611,1055
3459,44,45,76,370
3460,610,790,611,1055
3461,361,693,691,1082
3462,506,527,525,1045
3463,501,806,522,807
3464,423,473,488,1126
3465,359,365,713,957
3466,712,866,717,885
3467,598,613,1103,1126
3468,488,680,707,1126
3469,782,789,784,1047
3470,188,478,470,881
3471,1033,1114,1035,1135
3472,809,813,875,879
3473,445,481,472,921
3474,81,336,1035,1135
3475,369,667,674,977
3476,452,523,534,740
3477,811,879,1004,1031
3478,314,338,339,1067
3479,531,1050,893,1051
3480,200,221,320,1062
3481,386,398,669,878
3482,439,813,812,1000
3483,106,147,107,484
3484,631,650,900,901
3485,7,631,899,901
3486,197,343,237,953
3487,862,903,900,1006
3488,106,484,485,756
3489,240,276,277,865
3490,128,1102,680,1126
3491,777,1061,1062,1127
3492,722,723,729,861
3493,859,860,861,864
3494,528,892,968,1018
3495,99,100,441,677
3496,717,718,806,807
3497,98,488,473,1126
3498,130,140,168,677
3499,96,481,445,925
3500,382,884,882,1093
3501,382,387,882,884
3502,381,882,967,1093
3503,128,473,1103,1126
3504,255,259,262,1115
3505,381,889,895,967
3506,153,983,161,984
3507,437,477,438,727
3508,269,858,979,1025
3509,154,155,159,985
3510,722,861,729,985
3511,412,478,471,732
3512,173,492,233,761
3513,647,651,648,1023
3514,756,1117,1118,1119
3515,172,233,492,726
3516,641,1100,658,1144
3517,134,150,159,725
3518,108,150,134,725
3519,272,1054,1059,1072
3520,110,171,172,232
3521,154,729,160,983
3522,519,535,531,1011
3523,770,802,883,969
3524,493,510,505,1064
3525,310,395,1043,1044
3526,454,751,519,868
3527,443,454,521,935
3528,377,393,395,1044
3529,509,522,788,789
3530,524,797,786,819
3531,393,404,395,1083
3532,538,819,992,994
3533,509,524,510,786
3534,822,853,828,1009
3535,520,538,536,994
3536,434,471,478,850
3537,205,366,371,1095
3538,324,991,847,1110
3539,456,518,538,819
3540,288,557,566,1098
3541,304,374,940,942
3542,802,803,1075,1122
3543,557,574,775,1121
3544,846,952,948,1131
3545,319,333,325,873
3546,287,574,557,1121
3547,493,509,510,1064
3548,820,821,822,1073
3549,103,442,498,1013
3550,529,826,786,852
3551,286,287,333,1121
3552,509,529,786,788
3553,249,273,264,798
3554,700,872,793,935
3555,413,555,573,1157
3556,916,1132,1115,1133
3557,459,1140,555,1157
3558,57,68,93,1156
3559,387,716,882,884
3560,414,556,572,1032
3561,886,892,890,1154
3562,57,965,92,1032
3563,104,138,141,1087
3564,414,459,460,1032
3565,872,1048,896,1051
3566,150,159,725,729
3567,134,159,158,722
3568,158,1054,1053,1071
3569,915,916,928,1069
3570,39,40,69,307
3571,771,772,773,775
3572,321,768,772,1098
3573,242,832,466,1158
3574,470,478,732,881
3575,242,468,466,832
3576,555,1140,573,1157
3577,565,1077,799,1097
3578,317,344,1090,1096
3579,914,915,927,930
3580,242,1078,832,1158
3581,58,92,93,932
3582,466,832,1052,1158
3583,55,765,66,970
3584,567,757,568,1076
3585,39,69,56,731
3586,251,252,264,1089
3587,251,798,803,1089
3588,916,1068,928,1069
3589,699,794,790,1074
3590,423,488,424,599
3591,599,707,622,1126
3592,371,1095,1075,1122
3593,887,889,891,892
3594,532,894,990,1045
3595,404,405,843,1083
3596,16,467,480,996
3597,326,345,870,1142
3598,395,1043,1044,1083
3599,377,380,669,670
3600,398,669,895,1083
3601,395,406,1043,1083
3602,584,585,606,746
3603,452,467,469,684
3604,406,843,841,1083
3605,404,843,406,1083
3606,63,83,1057,1134
3607,443,444,461,793
3608,443,507,444,793
3609,698,790,791,1040
3610,461,792,793,794
3611,443,461,480,792
3612,503,522,806,855
3613,851,854,853,1009
3614,522,806,855,1049
3615,98,128,680,1126
3616,618,1033,624,1103
3617,605,1085,622,1105
3618,524,786,529,826
3619,622,707,1104,1126
3620,129,142,169,1084
3621,786,852,826,853
3622,712,866,885,1095
3623,883,890,892,1154
3624,622,1085,1103,1104
3625,137,481,924,1103
3626,717,808,883,885
3627,827,828,831,869
3628,419,462,594,794
3629,203,245,224,957
3630,466,832,833,1052
3631,187,242,244,836
3632,113,114,139,337
3633,129,170,1036,1085
3634,294,338,351,1065
3635,563,799,565,1077
3636,128,169,140,680
3637,596,623,616,763
3638,188,470,244,881
3639,470,732,836,881
3640,13,648,644,1023
3641,626,646,634,958
3642,625,646,626,986
3643,626,986,980,1024
3644,244,837,262,881
3645,836,838,837,881
3646,647,988,651,1023
3647,647,652,651,988
3648,541,542,836,838
3649,932,963,962,965
3650,437,465,477,762
3651,484,756,727,1026
3652,578,1146,914,1149
3653,415,558,571,999
3654,459,572,555,1140
3655,23,459,431,1156
3656,154,305,903,984
3657,235,465,759,762
3658,573,1149,1132,1155
3659,176,238,177,458
3660,431,918,1156,1157
3661,151,162,163,1088
3662,141,163,162,1088
3663,637,659,1099,1152
3664,151,1101,152,1143
3665,723,727,728,756
3666,149,151,163,1148
3667,476,711,1012,1087
3668,642,655,1012,1153
3669,23,57,459,1156
3670,142,168,169,675
3671,427,656,857,1113
3672,450,475,451,1015
3673,944,1087,1016,1088
3674,151,1101,1143,1148
3675,136,911,164,1013
3676,300,658,641,1100
3677,149,164,942,944
3678,427,656,639,857
3679,138,164,163,944
3680,121,151,149,1148
3681,312,938,316,943
3682,104,442,138,1087
3683,304,312,340,1137
3684,164,911,942,1013
3685,357,943,991,1110
3686,383,391,908,995
3687,1087,1088,1120,1153
3688,655,1014,1012,1016
3689,153,154,983,984
3690,24,57,70,1032
3691,25,59,26,432
3692,124,342,305,984
3693,140,675,168,677
3694,902,983,903,984
3695,342,901,355,903
3696,902,903,983,1006
3697,613,622,618,1103
3698,32,63,64,922
3699,283,569,561,915
3700,58,93,69,932
3701,598,624,615,1103
3702,598,613,624,1103
3703,946,1015,947,1092
3704,284,551,331,931
3705,779,787,784,788
3706,881,917,912,1115
3707,569,578,577,930
3708,284,354,561,931
3709,92,965,1031,1032
3710,385,851,400,854
3711,43,74,60,880
3712,144,167,168,678
3713,392,400,851,1009
3714,142,144,168,753
3715,362,383,372,908
3716,400,854,851,1009
3717,819,848,849,994
3718,441,508,447,681
3719,130,168,167,678
3720,845,949,1086,1138
3721,100,133,101,508
3722,524,819,786,826
3723,299,340,1112,1152
3724,203,204,245,359
3725,1033,1103,1034,1114
3726,512,969,808,1094
3727,656,1028,857,1113
3728,887,892,894,895
3729,365,373,384,776
3730,273,801,1022,1122
3731,489,501,522,807
3732,227,274,273,1022
3733,656,660,663,1002
3734,183,231,184,497
3735,536,538,992,994
3736,325,398,878,895
3737,514,1015,848,1092
3738,365,384,388,715
3739,366,382,371,1093
3740,946,1014,1015,1028
3741,778,780,781,823
3742,537,826,540,992
3743,778,822,823,851
3744,537,819,826,992
3745,820,822,1027,1073
3746,451,456,514,848
3747,182,489,243,866
3748,184,497,231,1022
3749,286,814,553,1121
3750,175,236,464,1024
3751,390,908,1030,1073
3752,519,868,751,869
3753,236,982,986,1024
3754,626,647,648,1005
3755,235,269,236,1025
3756,316,392,991,1073
3757,392,399,1009,1073
3758,390,1030,399,1073
3759,735,913,1149,1156
3760,912,913,918,1149
3761,256,368,739,928
3762,730,914,735,1149
3763,730,912,738,927
3764,40,932,931,964
3765,176,236,238,986
3766,236,979,1024,1025
3767,730,735,913,1149
3768,730,731,734,927
3769,69,93,734,932
3770,94,913,735,1156
3771,912,915,916,928
3772,718,721,806,855
3773,210,255,253,1068
3774,402,829,1008,1159
3775,251,264,273,798
3776,321,322,356,772
3777,822,828,1007,1009
3778,543,544,565,835
3779,822,828,826,992
3780,8,343,279,955
3781,715,716,721,854
3782,255,349,928,1068
3783,483,961,949,1086
3784,323,328,358,1130
3785,503,855,806,856
3786,198,219,237,1124
3787,503,535,852,856
3788,295,328,329,632
3789,529,535,826,852
3790,151,152,162,1143
3791,716,717,882,884
3792,636,1112,659,1152
3793,509,786,780,788
3794,122,151,353,1101
3795,717,808,806,886
3796,488,707,599,1126
3797,133,167,166,687
3798,503,852,855,856
3799,300,342,341,1100
3800,223,224,275,785
3801,299,637,341,1152
3802,181,494,241,867
3803,166,688,687,906
3804,536,537,540,992
3805,449,528,968,1046
3806,312,378,316,938
3807,316,392,324,991
3808,770,804,802,1017
3809,381,967,966,1093
3810,322,966,381,967
3811,253,1070,1133,1136
3812,210,347,349,1069
3813,312,374,378,938
3814,912,928,916,1115
3815,543,838,550,1133
3816,679,681,683,703
3817,128,137,170,1103
3818,302,928,349,1069
3819,302,348,915,1069
3820,550,1132,916,1133
3821,302,927,738,928
3822,120,374,304,942
3823,210,349,255,1068
3824,417,559,487,1003
3825,88,674,671,875
3826,120,304,149,942
3827,455,486,1001,1042
3828,401,406,408,843
3829,536,538,537,992
3830,774,775,810,1121
3831,526,877,708,990
3832,378,383,390,908
3833,385,392,400,851
3834,580,1076,775,1145
3835,709,887,894,895
3836,775,814,810,1121
3837,321,768,322,772
3838,139,1033,170,1034
3839,247,259,250,917
3840,526,539,877,990
3841,2,445,33,925
3842,453,817,1018,1020
3843,494,522,509,789
3844,503,529,522,855
3845,716,825,830,882
3846,444,699,695,1074
3847,31,63,32,463
3848,446,1074,695,1109
3849,501,502,806,808
3850,32,64,33,472
3851,422,596,472,926
3852,421,463,472,764
3853,530,856,886,1050
3854,421,472,596,764
3855,371,1093,1075,1095
3856,716,824,721,853
3857,463,1057,595,1079
3858,32,472,764,922
3859,501,808,807,1094
3860,223,275,276,783
3861,667,709,710,878
3862,443,480,454,935
3863,580,775,582,815
3864,398,669,878,895
3865,87,672,694,933
3866,80,81,83,1135
3867,542,543,834,837
3868,48,79,303,1128
3869,612,919,621,1128
3870,291,1128,620,1135
3871,579,1140,965,1146
3872,573,1140,579,1149
3873,541,542,564,834
3874,187,244,188,470
3875,40,69,307,734
3876,730,927,734,930
3877,429,643,654,711
3878,105,143,485,1120
3879,429,476,485,711
3880,69,94,730,735
3881,572,1032,965,1140
3882,218,858,859,954
3883,235,270,269,858
3884,147,160,728,1118
3885,501,503,522,806
3886,525,539,526,990
3887,698,919,1039,1081
3888,540,992,826,1011
3889,477,1023,644,1026
3890,230,265,231,1150
3891,125,305,363,985
3892,373,376,384,776
3893,241,275,267,867
3894,224,245,267,957
3895,181,243,489,867
3896,235,724,858,1025
3897,235,465,762,1025
3898,489,522,494,1049
3899,182,243,230,866
3900,57,965,1032,1140
3901,495,501,807,1094
3902,27,65,28,499
3903,824,825,856,886
3904,853,854,1008,1009
3905,97,137,473,481
3906,243,866,489,867
3907,577,578,579,929
3908,542,563,564,834
3909,40,307,331,931
3910,96,137,97,481
3911,98,128,140,680
3912,307,354,734,927
3913,627,634,907,980
3914,412,562,541,732
3915,627,981,980,1124
3916,325,873,333,1121
3917,287,553,574,1121
3918,328,329,632,796
3919,628,632,629,1124
3920,237,268,269,981
3921,198,796,219,1124
3922,572,581,965,997
3923,663,952,845,1002
3924,555,579,573,1140
3925,93,735,1146,1156
3926,315,1030,391,1116
3927,314,391,995,1116
3928,98,140,482,680
3929,399,766,1007,1030
3930,549,916,1070,1133
3931,29,62,71,694
3932,77,86,672,693
3933,71,694,86,1106
3934,289,290,334,600
3935,444,462,794,1074
3936,811,813,879,1000
3937,393,1044,669,1083
3938,289,334,330,1038
3939,228,719,720,744
3940,128,170,169,1102
3941,336,1033,1035,1135
3942,254,261,260,719
3943,77,672,361,693
3944,62,65,87,933
3945,506,525,696,1045
3946,675,678,676,752
3947,670,671,672,674
3948,630,899,631,900
3949,161,983,1118,1144
3950,772,775,774,1121
3951,811,1000,999,1001
3952,42,318,60,976
3953,318,976,975,977
3954,811,997,999,1000
3955,327,860,355,899
3956,912,1149,918,1155
3957,300,301,342,641
3958,455,1020,487,1042
3959,7,355,301,901
3960,564,833,758,1052
3961,305,342,903,984
3962,627,628,981,1124
3963,626,627,647,979
3964,342,641,902,1100
3965,300,341,637,1100
3966,630,899,900,956
3967,59,998,70,1031
3968,862,900,989,1006
3969,154,305,861,903
3970,557,580,773,775
3971,316,991,938,1073
3972,941,944,1016,1148
3973,342,902,901,903
3974,373,376,776,1127
3975,301,342,641,902
3976,725,726,761,1053
3977,828,871,1007,1159
3978,742,750,766,1007
3979,399,1030,1007,1073
3980,821,851,822,1009
3981,399,871,402,1159
3982,655,665,1014,1016
3983,143,162,161,1117
3984,898,1118,983,1119
3985,428,476,429,642
3986,402,871,829,1159
3987,228,261,229,720
3988,368,738,739,928
3989,570,580,582,815
3990,431,471,435,918
3991,582,815,814,1004
3992,254,257,261,974
3993,55,95,94,736
3994,22,431,435,913
3995,247,250,744,917
3996,56,69,94,731
3997,801,802,1017,1022
3998,44,76,74,674
3999,361,370,377,670
4000,195,363,864,1059
4001,504,688,904,973
4002,690,741,703,818
4003,690,741,742,905
4004,215,216,272,1059
4005,117,689,753,755
4006,167,687,678,689
4007,134,725,722,1053
4008,110,135,112,232
4009,127,215,156,1059
4010,144,167,678,689
4011,117,145,144,689
4012,132,232,135,1054
4013,111,127,193,215
4014,215,272,1054,1059
4015,132,215,258,1054
4016,111,112,132,258
4017,690,818,755,995
4018,686,690,755,995
4019,971,1027,993,1029
4020,144,145,167,689
4021,390,908,391,1030
4022,441,482,677,679
4023,357,943,1110,1111
4024,101,131,102,504
4025,100,133,508,682
4026,846,952,1123,1130
4027,118,119,146,372
4028,362,372,686,908
4029,742,905,908,995
4030,339,597,588,749
4031,845,946,849,1015
4032,314,383,362,995
4033,205,246,366,1095
4034,206,248,371,1122
4035,566,580,568,773
4036,178,505,433,1063
4037,199,200,221,320
4038,323,846,1061,1130
4039,201,373,223,865
4040,632,907,796,1124
4041,943,946,1002,1014
4042,457,959,949,960
4043,266,712,866,867
4044,219,268,237,1124
4045,627,633,628,907
4046,518,524,538,819
4047,219,278,268,816
4048,457,638,960,961
4049,722,863,861,864
4050,67,95,89,737
4051,52,226,53,229
4052,190,490,434,744
4053,211,368,256,928
4054,183,231,497,1150
4055,882,883,967,1093
4056,862,983,903,1006
4057,159,722,725,729
4058,492,725,726,761
4059,107,147,150,728
4060,593,790,602,936
4061,248,274,1095,1122
4062,420,462,463,1079
4063,802,1093,885,1095
4064,896,1045,897,1048
4065,183,230,231,1150
4066,366,1093,371,1095
4067,75,84,1056,1108
4068,47,303,79,1081
4069,53,54,89,760
4070,317,805,350,1096
4071,225,251,273,803
4072,334,1038,600,1129
4073,209,210,253,347
4074,1055,1108,1056,1139
4075,737,738,912,917
4076,544,1070,545,1151
4077,323,389,376,777
4078,448,949,457,950
4079,221,240,277,1062
4080,240,865,1062,1127
4081,632,633,653,1123
4082,219,816,268,1124
4083,202,373,365,785
4084,78,1081,85,1106
4085,448,505,510,844
4086,1056,1108,1134,1139
4087,499,506,517,696
4088,797,823,819,848
4089,602,610,603,791
4090,919,1107,1040,1139
4091,201,240,364,1127
4092,771,1020,775,1076
4093,567,1020,1003,1076
4094,267,712,867,957
4095,87,672,671,674
4096,563,567,564,757
4097,608,685,609,707
4098,469,589,604,683
4099,741,742,905,971
4100,1056,1134,1057,1139
4101,908,910,909,938
4102,743,1067,818,1116
4103,712,717,714,884
4104,201,202,223,373
4105,316,943,938,991
4106,828,1009,1008,1159
4107,447,516,523,1029
4108,136,164,138,1013
4109,502,806,808,886
4110,501,512,808,1094
4111,523,536,1010,1029
4112,315,379,399,871
4113,463,764,595,1057
4114,524,537,819,826
4115,18,411,468,833
4116,685,702,743,748
4117,146,906,686,910
4118,583,584,589,996
4119,429,642,476,711
4120,606,685,684,748
4121,139,337,1033,1035
4122,1041,1108,1106,1109
4123,516,971,904,1029
4124,315,339,937,1116
4125,314,818,1067,1116
4126,508,516,681,973
4127,315,937,766,1116
4128,315,379,871,1142
4129,491,506,499,696
4130,101,504,508,688
4131,532,893,894,897
4132,28,491,499,933
4133,691,697,888,1044
4134,399,1007,871,1159
4135,533,893,892,894
4136,889,890,892,967
4137,530,886,533,1050
4138,668,669,691,888
4139,74,875,90,880
4140,380,386,393,669
4141,593,790,792,794
4142,74,76,88,674
4143,80,1128,335,1135
4144,447,683,681,741
4145,449,453,528,1046
4146,574,582,580,775
4147,742,1007,766,1030
4148,843,889,891,1083
4149,60,90,91,879
4150,34,81,50,1035
4151,380,667,669,670
4152,710,809,813,875
4153,502,503,806,856
4154,49,335,336,1135
4155,533,886,893,1050
4156,501,502,503,806
4157,771,800,1003,1076
4158,808,883,969,1154
4159,558,570,582,815
4160,885,1094,1022,1150
4161,88,671,874,875
4162,246,265,266,1095
4163,718,784,787,788
4164,183,497,495,1150
4165,273,798,801,803
4166,802,1075,966,1093
4167,557,580,566,773
4168,375,381,966,1093
4169,16,480,418,583
4170,480,934,792,936
4171,533,892,886,1154
4172,230,243,266,866
4173,512,808,969,1154
4174,410,583,589,996
4175,684,746,767,934
4176,681,690,682,973
4177,146,165,166,906
4178,692,694,695,1041
4179,778,822,819,823
4180,47,79,78,1081
4181,372,383,378,908
4182,64,921,923,925
4183,102,504,131,911
4184,50,336,113,1035
4185,31,463,436,1056
4186,102,136,498,911
4187,133,508,682,688
4188,131,133,166,688
4189,908,972,1030,1073
4190,601,621,620,1128
4191,261,760,719,974
4192,490,765,720,970
4193,435,850,765,918
4194,211,302,368,928
4195,57,1032,459,1140
4196,211,255,349,928
4197,66,89,95,970
4198,24,70,25,998
4199,831,841,843,891
4200,675,676,677,680
4201,741,742,743,818
4202,585,607,606,748
4203,898,983,1006,1119
4204,34,157,61,1035
4205,652,898,988,1006
4206,137,473,481,1103
4207,159,722,729,985
4208,61,923,81,1035
4209,724,862,858,988
4210,137,924,1034,1103
4211,145,166,167,687
4212,652,664,898,1006
4213,143,756,1117,1118
4214,682,690,687,973
4215,305,861,313,985
4216,301,901,342,902
4217,135,726,158,1054
4218,649,900,652,989
4219,172,233,173,492
4220,342,902,984,1100
4221,641,664,902,1144
4222,152,984,161,1144
4223,123,342,124,984
4224,379,402,399,871
4225,178,239,179,505
4226,510,524,518,797
4227,448,505,844,950
4228,634,907,958,1131
4229,666,1099,1117,1144
4230,482,680,679,707
4231,807,808,885,1094
4232,220,277,239,1063
4233,474,604,608,685
4234,589,608,604,685
4235,589,684,606,685
4236,676,690,681,703
4237,221,795,320,1062
4238,621,1057,1058,1139
4239,634,960,948,1131
4240,676,681,679,703
4241,338,597,749,1066
4242,737,739,738,917
4243,284,285,331,551
4244,675,702,707,1104
4245,752,1084,754,1105
4246,140,675,677,680
4247,474,679,685,707
4248,679,702,685,707
4249,142,752,675,1084
4250,676,677,679,681
4251,609,702,748,1147
4252,543,550,549,1133
4253,12,282,347,545
4254,188,247,478,881
4255,912,916,914,1132
4256,581,978,997,1004
4257,247,850,881,917
4258,319,325,386,878
4259,732,881,850,1132
4260,124,154,153,984
4261,471,850,918,1155
4262,578,914,916,1132
4263,217,859,270,863
4264,354,734,927,930
4265,195,196,217,859
4266,195,363,313,864
4267,154,903,861,983
4268,189,744,434,850
4269,562,1132,732,1155
4270,573,578,1132,1149
4271,386,398,393,669
4272,506,1045,696,1080
4273,319,386,380,667
4274,286,333,814,1121
4275,667,710,873,878
4276,86,694,693,1106
4277,238,458,986,987
4278,308,693,361,1082
4279,176,458,464,986
4280,176,464,236,986
4281,290,303,334,1129
4282,175,236,1024,1025
4283,14,464,458,625
4284,290,1128,303,1129
4285,625,626,648,1024
4286,236,268,238,982
4287,453,526,539,1018
4288,532,533,539,894
4289,808,969,885,1094
4290,225,274,248,1122
4291,23,57,24,459
4292,379,401,829,842
4293,25,432,460,998
4294,432,486,460,999
4295,322,774,772,1019
4296,49,336,81,1135
4297,432,439,486,1001
4298,770,967,966,1019
4299,655,1012,1014,1113
4300,220,278,277,1060
4301,239,277,276,782
4302,494,789,867,1049
4303,639,663,657,948
4304,663,948,845,952
4305,449,513,496,1021
4306,497,1017,969,1022
4307,768,769,772,1098
4308,248,274,265,1095
4309,371,382,375,1093
4310,178,220,239,1063
4311,222,782,783,1047
4312,99,140,130,677
4313,99,482,140,677
4314,130,677,676,682
4315,314,754,338,1067
4316,98,482,488,680
4317,246,712,366,1095
4318,606,609,608,685
4319,147,160,150,728
4320,177,220,178,433
4321,858,862,860,900
4322,642,666,655,1153
4323,143,161,147,1118
4324,236,986,464,1024
4325,502,533,530,886
4326,501,512,502,808
4327,322,398,325,895
4328,175,236,176,464
4329,722,864,861,985
4330,416,487,559,1042
4331,886,890,892,893
4332,338,754,1066,1067
4333,758,1052,832,1078
4334,768,805,769,1098
4335,769,799,800,1077
4336,321,367,375,805
4337,135,232,726,1054
4338,569,914,915,916
4339,426,657,638,961
4340,208,252,251,1090
4341,40,931,331,964
4342,758,800,1052,1078
4343,288,547,350,1098
4344,288,566,547,1098
4345,479,560,1003,1052
4346,306,354,307,927
4347,281,346,344,1151
4348,344,1091,1096,1097
4349,302,738,368,928
4350,758,835,799,1141
4351,38,306,731,733
4352,423,488,599,1126
4353,293,337,592,1036
4354,292,336,591,619
4355,301,650,901,902
4356,161,984,983,1144
4357,641,658,664,1144
4358,658,666,664,1144
4359,114,129,139,1036
4360,337,619,592,1033
4361,123,341,1100,1101
4362,591,620,623,1135
4363,291,620,591,1135
4364,49,81,80,1135
4365,291,292,336,591
4366,800,801,804,1021
4367,542,550,543,838
4368,592,619,624,1033
4369,336,619,1033,1135
4370,544,1070,1091,1136
4371,252,263,264,1141
4372,204,205,246,366
4373,246,248,265,1095
4374,109,135,110,726
4375,719,739,737,917
4376,19,20,191,720
4377,53,229,226,760
4378,226,229,261,760
4379,324,358,357,1110
4380,450,945,1012,1015
4381,298,635,660,1112
4382,608,609,622,707
4383,19,52,82,229
4384,613,618,624,1103
4385,427,428,640,1012
4386,176,238,458,986
4387,238,268,278,816
4388,458,646,625,986
4389,427,475,428,1012
4390,14,458,425,625
4391,585,602,603,704
4392,808,886,883,1154
4393,919,1038,1039,1129
4394,409,648,465,1024
4395,122,353,341,1101
4396,299,353,340,1152
4397,152,1101,1100,1143
4398,825,882,883,890
4399,521,532,527,1045
4400,561,930,577,931
4401,561,569,577,930
4402,354,915,561,930
4403,723,727,756,898
4404,429,654,642,711
4405,642,654,666,711
4406,646,959,958,986
4407,428,642,655,1012
4408,428,475,476,1012
4409,659,1112,665,1153
4410,790,1040,1041,1055
4411,71,1106,85,1109
4412,446,507,491,695
4413,1107,1128,1134,1139
4414,14,409,464,625
4415,28,62,29,491
4416,530,531,535,827
4417,44,369,370,674
4418,529,535,537,826
4419,503,530,535,856
4420,497,969,512,1094
4421,46,77,361,693
4422,840,871,842,1142
4423,700,1037,1043,1044
4424,71,86,85,1106
4425,506,696,695,1080
4426,77,86,87,672
4427,310,377,395,1044
4428,672,673,694,933
4429,496,513,497,1017
4430,75,85,84,1108
4431,610,617,621,1139
4432,183,495,230,1150
4433,519,531,868,869
4434,452,534,519,751
4435,531,827,869,1011
4436,672,673,693,694
4437,454,751,868,934
4438,207,251,225,803
4439,541,562,542,838
4440,336,619,337,1033
4441,591,623,619,1135
4442,244,262,247,881
4443,618,1085,1033,1103
4444,18,470,541,833
4445,187,468,242,836
4446,102,498,504,911
4447,101,133,131,688
4448,741,742,971,1029
4449,145,146,166,686
4450,132,156,215,1054
4451,112,232,132,258
4452,119,372,374,910
4453,146,686,372,910
4454,111,132,156,215
4455,111,132,215,258
4456,132,158,156,1054
4457,531,533,532,893
4458,173,759,437,761
4459,406,842,841,843
4460,539,877,894,1018
4461,454,531,521,868
4462,179,505,239,782
4463,303,308,1039,1081
4464,716,830,824,1008
4465,521,531,532,1048
4466,222,275,241,1047
4467,169,680,1102,1104
4468,376,385,384,776
4469,243,267,266,867
4470,713,715,714,718
4471,203,224,365,957
4472,245,246,266,712
4473,320,323,364,1061
4474,366,712,387,884
4475,208,317,344,1090
4476,207,208,251,317
4477,620,1058,623,1135
4478,763,764,922,1058
4479,548,916,915,1069
4480,82,760,89,970
4481,548,569,915,916
4482,210,253,347,1070
4483,282,548,348,1069
4484,348,548,915,1069
4485,56,94,730,731
4486,11,546,281,1151
4487,256,739,260,917
4488,20,66,490,720
4489,298,299,340,1112
4490,299,636,659,1152
4491,202,203,224,365
4492,299,300,341,637
4493,655,665,1016,1153
4494,743,766,749,1116
4495,495,807,866,1094
4496,369,380,370,670
4497,43,318,369,880
4498,718,784,788,1049
4499,292,337,336,619
4500,721,824,825,856
4501,439,500,517,812
4502,60,318,880,976
4503,318,880,976,977
4504,42,60,72,976
4505,6,111,127,193
4506,127,194,193,215
4507,195,864,216,1059
4508,196,218,217,859
4509,113,337,139,1035
4510,217,218,270,859
4511,10,289,330,587
4512,327,859,860,954
4513,242,264,263,832
4514,305,355,313,860
4515,858,860,899,900
4516,187,470,468,836
4517,771,1021,968,1046
4518,887,889,892,895
4519,560,757,1003,1052
4520,449,528,513,968
4521,453,539,528,1018
4522,253,262,263,837
4523,125,363,155,985
4524,105,476,1087,1120
4525,178,433,220,1063
4526,220,433,987,1063
4527,155,156,158,1071
4528,125,155,154,985
4529,125,126,155,363
4530,125,154,305,985
4531,323,358,324,951
4532,433,457,458,959
4533,296,645,358,1130
4534,458,625,464,986
4535,220,238,278,987
4536,857,1028,961,1086
4537,289,590,600,920
4538,433,950,457,959
4539,416,558,486,1042
4540,289,600,334,1038
4541,553,582,574,814
4542,379,842,871,1142
4543,768,772,771,1019
4544,104,476,442,1087
4545,398,895,405,1083
4546,768,804,805,1075
4547,103,138,104,442
4548,511,512,513,1154
4549,511,539,533,892
4550,44,370,76,674
4551,76,77,87,672
4552,45,361,77,672
4553,194,216,215,1059
4554,415,556,460,999
4555,313,864,363,985
4556,305,313,363,985
4557,124,125,154,305
4558,415,571,556,999
4559,126,363,194,1059
4560,25,59,432,998
4561,294,351,352,1065
4562,114,115,129,1036
4563,290,601,1128,1129
4564,439,455,486,1001
4565,206,371,367,1122
4566,207,225,367,803
4567,317,1089,805,1096
4568,134,158,135,726
4569,333,814,873,975
4570,571,582,575,1004
4571,558,570,815,1042
4572,110,112,171,232
4573,70,92,91,1031
4574,586,603,590,705
4575,232,258,272,1054
4576,567,1020,1076,1145
4577,811,815,997,1004
4578,809,814,811,1004
4579,709,877,894,990
4580,31,63,463,1056
4581,809,879,976,1004
4582,558,582,571,815
4583,1107,1134,1108,1139
4584,416,570,558,1042
4585,455,487,486,1042
4586,79,80,84,1134
4587,447,469,474,683
4588,452,751,454,934
4589,84,1056,1108,1134
4590,79,1128,80,1134
4591,447,452,469,740
4592,452,467,684,934
4593,15,424,474,604
4594,80,83,84,1134
4595,63,75,84,1056
4596,483,857,961,1086
4597,427,451,475,857
4598,822,1007,992,1027
4599,848,1015,849,1092
4600,845,949,948,1086
4601,469,604,474,683
4602,15,469,589,604
4603,424,599,488,707
4604,797,823,848,1138
4605,179,493,505,782
4606,7,631,630,899
4607,351,352,1065,1084
4608,115,142,129,1084
4609,316,324,357,991
4610,295,296,328,632
4611,115,116,142,351
4612,351,1065,754,1084
4613,614,1066,1105,1147
4614,111,156,127,215
4615,115,351,142,1084
4616,114,352,115,1036
4617,653,662,661,952
4618,868,1048,872,1051
4619,645,952,661,1110
4620,31,75,63,1056
4621,48,80,79,1128
4622,78,79,85,1081
4623,795,907,796,1123
4624,627,628,649,956
4625,295,329,629,632
4626,48,335,80,1128
4627,323,846,777,1061
4628,11,350,288,547
4629,20,490,191,720
4630,34,113,139,1035
4631,83,1058,1134,1135
4632,563,568,567,757
4633,565,566,568,1077
4634,568,773,580,1076
4635,440,1021,801,1052
4636,542,543,563,834
4637,1036,1065,1084,1085
4638,322,966,967,1019
4639,34,35,61,157
4640,565,566,1077,1097
4641,481,926,924,1103
4642,242,249,264,1078
4643,468,833,832,836
4644,3,50,113,1035
4645,923,1034,924,1114
4646,502,886,808,1154
4647,137,157,170,1034
4648,35,137,96,925
4649,740,742,741,1029
4650,589,746,684,996
4651,401,408,407,843
4652,502,511,533,1154
4653,454,519,531,868
4654,452,519,454,751
4655,593,611,602,790
4656,315,326,379,1142
4657,137,924,925,1034
4658,598,615,926,1103
4659,139,170,157,1034
4660,923,925,924,1034
4661,841,896,1043,1083
4662,372,374,910,938
4663,119,146,372,910
4664,131,166,165,906
4665,120,148,374,942
4666,454,480,467,934
4667,686,687,905,906
4668,418,480,461,792
4669,801,803,802,1122
4670,49,80,335,1135
4671,291,336,335,1135
4672,37,54,213,974
4673,53,257,54,760
4674,291,591,336,1135
4675,245,359,712,957
4676,179,222,180,493
4677,394,716,397,830
4678,224,267,275,785
4679,224,785,365,957
4680,202,223,373,785
4681,48,49,80,335
4682,80,1134,1128,1135
4683,230,266,265,1150
4684,80,83,1134,1135
4685,513,969,968,1154
4686,616,763,623,1058
4687,40,58,69,932
4688,620,1128,1058,1135
4689,730,734,735,930
4690,767,872,868,935
4691,140,677,482,680
4692,293,592,618,1036
4693,367,371,375,1075
4694,582,775,814,815
4695,718,855,806,1049
4696,771,774,1018,1019
4697,606,609,685,748
4698,339,749,588,1125
4699,609,702,622,707
4700,311,754,314,755
4701,9,280,339,588
4702,36,51,214,257
4703,36,214,213,257
4704,36,213,54,257
4705,315,399,766,871
4706,597,614,749,1066
4707,560,564,757,1052
4708,487,1003,559,1020
4709,559,1020,567,1145
4710,559,567,580,1145
4711,774,895,1018,1019
4712,567,568,580,1076
4713,283,354,348,915
4714,288,356,557,1098
4715,325,398,386,878
4716,302,348,354,915
4717,322,375,381,966
4718,225,273,274,1122
4719,225,367,803,1122
4720,248,1095,371,1122
4721,738,927,912,928
4722,322,967,895,1019
4723,284,331,354,931
4724,400,402,403,1008
4725,9,588,339,597
4726,39,306,307,731
4727,721,806,855,856
4728,519,534,540,1010
4729,383,391,390,908
4730,302,354,306,927
4731,712,714,718,957
4732,340,1111,1112,1137
4733,831,1050,869,1051
4734,330,345,587,870
4735,535,540,537,826
4736,524,537,538,819
4737,427,1012,640,1113
4738,656,665,1014,1113
4739,661,952,663,1002
4740,524,529,537,826
4741,11,350,547,1097
4742,509,522,529,788
4743,453,487,455,1020
4744,822,826,828,853
4745,405,407,408,843
4746,396,403,397,1008
4747,721,855,852,856
4748,385,389,392,851
4749,17,417,479,560
4750,509,529,524,786
4751,494,522,789,1049
4752,247,850,478,881
4753,719,760,737,974
4754,189,247,250,744
4755,730,738,731,927
4756,190,250,228,744
4757,128,473,137,1103
4758,573,1140,1149,1157
4759,738,917,739,928
4760,416,559,570,1042
4761,22,435,55,913
4762,23,431,68,1156
4763,401,407,403,830
4764,559,580,570,1145
4765,185,801,249,1158
4766,185,227,249,801
4767,645,653,952,1130
4768,456,797,518,819
4769,563,799,758,835
4770,496,1017,497,1022
4771,523,536,534,1010
4772,181,243,182,489
4773,547,566,1097,1098
*SOLID SECTION,ELSET=PART1_EG1,MATERIAL=MAT1
*END PART
** ASSEMBLY
*ASSEMBLY, NAME=ASSEMBLY
*INSTANCE, NAME=PART1-1, PART=PART1
*END INSTANCE
*ELSET,ELSET=SF_ESET1,INTERNAL,INSTANCE=PART1-1 
16,80,177,371,476,522,530,604,648,673,692,916,1214,1275,1285,1305 
1410,1429,1473,1844,1851,1853,1922,2118,2147,2151,2165,2315,2317,2321,2325,2416 
2420,2657,2691,2792,2819,2891,2893,2896,2911,2943,2956,2985,3062,3114,3243,3256 
3259,3266,3269,3315,3328,3407,3412,3439,3442,3483,3498,3509,3517,3518,3563,3567 
3620,3632,3636,3661,3662,3666,3670,3679,3680,3712,3714,3719,3721,3790,3797,3817 
3910,3911,3940,3983,4008,4011,4016,4020,4024,4027,4059,4108,4177,4188,4211,4260 
4312,4319,4323,4359,4374,4447,4449,4454,4456,4505,4527,4528,4529,4547,4557,4562 
4568,4608,4611,4614,4630,4647,4648,4659,4664
*ELSET,ELSET=SF_ESET2,INTERNAL,INSTANCE=PART1-1 
4639
*ELSET,ELSET=SF_ESET3,INTERNAL,INSTANCE=PART1-1 
56,511,512,840,849,853,1224,1594,1598,1654,1737,1757,1874,1884,2211,2213 
2222,2224,2234,2241,2246,2328,2421,2492,2519,2536,2601,2629,2732,2742,2758,2816 
2843,2964,2967,2970,2977,2991,3044,3159,3162,3163,3167,3169,3291,3308,3369,3379 
3386,3393,3395,3540,3546,3555,3560,3653,3699,3707,3778,3873,3907,3908,3914,3917 
3924,3989,4035,4096,4146,4159,4167,4252,4344,4367,4401,4439,4486,4541,4558,4570 
4582,4584,4632,4633,4636,4710,4712,4760,4764
*ELSET,ELSET=SF_ESET4,INTERNAL,INSTANCE=PART1-1 
1976,2352,2500,2556,2772,4243,4253,4749
*ELSET,ELSET=SF_ESET5,INTERNAL,INSTANCE=PART1-1 
357,1826,2226,2242,3123,4628
*ELSET,ELSET=SF_ESET6,INTERNAL,INSTANCE=PART1-1 
58,85,92,232,392,551,638,641,647,650,671,677,678,704,830,914 
980,1013,1101,1232,1263,1294,1316,1322,1364,1388,1445,1457,1469,1489,1508,1519 
1525,1533,1557,1611,1616,1636,1637,1641,1703,1731,1736,1767,1778,1824,1855,1865 
1866,1872,1911,1914,1915,1923,1924,1932,1933,1957,1971,1975,1976,1977,2009,2012 
2043,2049,2051,2061,2075,2107,2125,2126,2138,2142,2148,2155,2156,2158,2160,2175 
2176,2190,2207,2231,2275,2277,2280,2281,2327,2335,2337,2342,2344,2429,2435,2466 
2482,2483,2490,2500,2504,2538,2544,2545,2551,2553,2556,2558,2561,2571,2603,2605 
2627,2654,2656,2672,2675,2746,2769,2772,2815,2821,2872,2878,2957,2987,2996,3004 
3006,3013,3028,3034,3039,3042,3045,3047,3052,3053,3079,3116,3117,3130,3137,3138 
3139,3144,3149,3152,3212,3284,3314,3316,3340,3341,3343,3382,3384,3408,3418,3451 
3478,3528,3531,3537,3545,3551,3634,3683,3692,3715,3729,3738,3739,3776,3780,3784 
3788,3799,3806,3807,3812,3813,3822,3828,3832,3833,3891,3892,3909,3934,3938,3957 
3959,3999,4032,4077,4083,4112,4140,4154,4181,4184,4194,4223,4224,4243,4253,4258 
4266,4271,4273,4281,4309,4327,4336,4346,4347,4365,4379,4395,4396,4417,4427,4452 
4468,4473,4475,4489,4492,4496,4497,4499,4506,4511,4514,4531,4556,4559,4561,4565 
4609,4610,4616,4628,4644,4651,4656,4671,4693,4701,4703,4713,4715,4716,4717,4723 
4724,4726,4729,4730,4745,4746,4748,4763
*ELSET,ELSET=SF_ESET7,INTERNAL,INSTANCE=PART1-1 
1085,1821,1918,2000,2359,2513,2521,2786,2856,2868,2879,2896,3245,3301,3307,3342 
3357,3385,3412,3439,3442,3459,3570,3632,3724,4027,4037,4073,4104,4372,4476,4491 
4529,4557,4611,4681
*ELSET,ELSET=SF_ESET8,INTERNAL,INSTANCE=PART1-1 
3350,4505
*ELSET,ELSET=SF_ESET9,INTERNAL,INSTANCE=PART1-1 
69,90,119,139,309,335,558,640,869,1132,1350,1446,1460,1550,1556,1592 
1624,1628,1647,1666,1698,1720,1741,1815,1821,1831,1841,1848,1859,1864,1867,1891 
1899,1918,1972,2040,2050,2088,2093,2115,2227,2305,2324,2362,2423,2427,2442,2448 
2458,2464,2467,2479,2495,2513,2521,2584,2591,2655,2673,2677,2713,2877,2934,2936 
2972,3097,3183,3245,3339,3342,3357,3358,3359,3366,3367,3372,3385,3409,3414,3456 
3489,3504,3553,3586,3629,3631,3659,3724,3732,3734,3755,3765,3773,3775,3786,3800 
3839,3860,3874,3883,3890,3893,3894,3899,3920,3942,3987,3992,4004,4037,4044,4047 
4065,4071,4073,4079,4104,4162,4172,4219,4225,4232,4265,4286,4290,4300,4301,4308 
4310,4320,4328,4340,4371,4372,4373,4378,4387,4438,4442,4466,4469,4472,4476,4491 
4508,4510,4513,4522,4535,4553,4575,4642,4676,4678,4683,4718,4754,4756,4766,4772 
*ELSET,ELSET=SF_ESET10,INTERNAL,INSTANCE=PART1-1 
2214,4016,4051,4451,4505
*ELSET,ELSET=SF_ESET11,INTERNAL,INSTANCE=PART1-1 
733,1587,3520,4506,4572,4702,4703
*ELSET,ELSET=SF_ESET12,INTERNAL,INSTANCE=PART1-1 
2359,2444,3328,3410,4013,4455
*ELSET,ELSET=SF_ESET13,INTERNAL,INSTANCE=PART1-1 
88,95,99,174,226,305,357,385,396,447,468,515,523,587,605,626 
631,733,748,881,891,894,941,994,1074,1175,1331,1352,1392,1417,1499,1515 
1559,1576,1612,1629,1633,1643,1652,1684,1700,1773,1791,1794,1802,1826,1845,1861 
1890,1900,1930,1935,1937,1942,1956,1973,2011,2062,2066,2081,2120,2166,2181,2184 
2189,2197,2223,2226,2238,2242,2256,2259,2272,2283,2291,2309,2326,2339,2346,2347 
2350,2353,2357,2360,2374,2394,2396,2432,2446,2542,2543,2562,2568,2588,2597,2604 
2621,2626,2643,2653,2660,2668,2683,2768,2770,2787,2802,2809,2811,2823,2825,2834 
2876,2990,2992,2995,3016,3017,3018,3026,3043,3069,3096,3105,3120,3121,3123,3133 
3140,3142,3172,3173,3207,3211,3235,3242,3247,3257,3332,3333,3362,3405,3406,3420 
3430,3434,3444,3462,3464,3470,3473,3476,3488,3495,3497,3499,3507,3511,3520,3522 
3524,3527,3533,3535,3536,3539,3547,3549,3564,3590,3596,3603,3607,3608,3611,3650 
3655,3672,3718,3731,3746,3804,3829,3841,3843,3844,3852,3862,3879,3885,3886,3898 
3985,3990,3994,4036,4046,4052,4062,4085,4087,4107,4115,4129,4130,4132,4145,4156 
4164,4169,4185,4226,4279,4283,4287,4288,4293,4294,4297,4305,4316,4325,4326,4376 
4389,4390,4399,4408,4412,4414,4416,4418,4419,4429,4434,4446,4457,4461,4465,4501 
4516,4520,4521,4532,4544,4548,4549,4564,4585,4587,4591,4593,4597,4605,4629,4652 
4653,4654,4666,4668,4728,4735,4736,4740,4742,4743,4749,4750,4771
*ELSET,ELSET=SF_ESET14,INTERNAL,INSTANCE=PART1-1 
1817,3328
*ELSET,ELSET=SF_ESET15,INTERNAL,INSTANCE=PART1-1 
139,371,604,1214,1550,1591,1655,1701,1815,2214,2321,2584,2673,2784,3061,3483 
3659,3691,3721,3734,3847,3850,3874,3902,3905,3910,4024,4219,4225,4291,4320,4328 
4415,4547,4676,4772
*ELSET,ELSET=SF_ESET16,INTERNAL,INSTANCE=PART1-1 
98,459,541,545,912,952,996,1082,1117,1150,1276,1372,1398,1432,1512,1514 
1659,1714,1768,1811,1951,2013,2182,2269,2276,2282,2285,2287,2289,2290,2572,2634 
2662,2708,2754,2767,2773,2776,2785,2794,2796,2798,2974,3012,3049,3068,3090,3104 
3108,3185,3192,3193,3196,3210,3213,3215,3458,3602,3637,3697,3701,3702,4089,4118 
4174,4190,4202,4234,4318,4362,4363,4368,4382,4384,4391,4431,4441,4537,4574,4655 
4692
*ELSET,ELSET=SF_ESET17,INTERNAL,INSTANCE=PART1-1 
688,3004,3934,4365,4511,4593,4701,4725
*ELSET,ELSET=SF_ESET18,INTERNAL,INSTANCE=PART1-1 
92,1213,1392,1629,2081,2166,2275,2768,3069,3214,3590,4169,4354,4602
*ELSET,ELSET=SF_ESET19,INTERNAL,INSTANCE=PART1-1 
229,231,237,299,300,394,439,705,742,784,878,895,924,1199,1329,1426 
1642,1646,1758,1793,1910,1939,2030,2095,2159,2188,2212,2314,2318,2348,2382,2395 
2400,2404,2451,2453,2484,2508,2664,2698,2804,2828,2873,2886,2979,2982,3003,3014 
3098,3229,3248,3250,3267,3279,3280,3304,3402,3417,3427,3513,3640,3641,3642,3647 
3676,3678,3733,3754,3877,3919,3963,4045,4081,4285,4303,4322,4339,4357,4358,4381 
4385,4404,4405,4407,4490,4606,4617,4624
*ELSET,ELSET=SF_ESET20,INTERNAL,INSTANCE=PART1-1 
1855,2283,2482,2800,2987,3957,4414,4492,4610
*ELSET,ELSET=SF_ESET21,INTERNAL,INSTANCE=PART1-1 
748,2809,3332,3985,4390,4625
*ELSET,ELSET=SF_ESET22,INTERNAL,INSTANCE=PART1-1 
444,539,718,738,838,917,954,977,983,1037,1085,1111,1143,1189,1192,1591 
1655,1701,1709,1730,1734,1739,2000,2139,2173,2202,2214,2215,2216,2230,2237,2252 
2260,2320,2359,2363,2370,2371,2375,2385,2444,2501,2525,2532,2564,2565,2567,2628 
2670,2733,2784,2786,2845,2855,2856,2859,2863,2868,2879,2927,2928,2929,2939,2942 
2968,3061,3128,3154,3168,3202,3263,3301,3306,3307,3310,3440,3459,3558,3570,3581 
3585,3690,3691,3698,3700,3711,3847,3850,3866,3902,3931,3944,3993,3996,3998,4050 
4069,4142,4149,4150,4180,4197,4198,4291,4364,4383,4415,4424,4426,4430,4504,4551 
4573,4586,4594,4595,4620,4621,4622,4639,4681,4687
*SURFACE,TYPE=ELEMENT,NAME=SURFACE1 
SF_ESET1,S1 
SF_ESET2,S2 
*SURFACE,TYPE=ELEMENT,NAME=SURFACE2 
SF_ESET3,S1 
SF_ESET4,S2 
SF_ESET5,S4 
*SURFACE,TYPE=ELEMENT,NAME=SURFACE3 
SF_ESET6,S1 
SF_ESET7,S2 
SF_ESET8,S4 
*SURFACE,TYPE=ELEMENT,NAME=SURFACE4 
SF_ESET9,S1 
SF_ESET10,S2 
SF_ESET11,S3 
SF_ESET12,S4 
*SURFACE,TYPE=ELEMENT,NAME=SURFACE5 
SF_ESET13,S1 
SF_ESET14,S2 
SF_ESET15,S4 
*SURFACE,TYPE=ELEMENT,NAME=SURFACE6 
SF_ESET16,S1 
SF_ESET17,S2 
SF_ESET18,S4 
*SURFACE,TYPE=ELEMENT,NAME=SURFACE7 
SF_ESET19,S1 
SF_ESET20,S2 
SF_ESET21,S4 
*SURFACE,TYPE=ELEMENT,NAME=SURFACE8 
SF_ESET22,S1 
*END ASSEMBLY
*MATERIAL,NAME=MAT1
*ELASTIC
0.210000E+12,0.280000E+00,
*PLASTIC
0.62042E+09,0.0000,0.0000
*EXPANSION
0.130000E-04,
*DENSITY
0.770000E+04,
*CONDUCTIVITY
0.500000E+02,
*SPECIFIC HEAT
0.460000E+03,
** PHYSICAL CONSTANTS
*PHYSICAL CONSTANTS, ABSOLUTE ZERO=0.0000000, STEFAN BOLTZMANN=0.56703001E-07
*STEP,solver=ITERATIVE
LOAD CASE NUMBER 1
*HEAT TRANSFER,STEADY STATE
1.0000,0.0000, , ,
*END STEP
